6
Lattice="2.5445879 0.0 0.0 -0.0 30.0 0.0 0.0 0.0 30.0" Properties=species:S:1:pos:R:3 pbc="T T T"
C        0.63597713      15.83107633      14.29054704
C        1.90828382      15.50610010      13.98551940
H        0.63757157      15.74526318      15.38881792
H        1.90860280      15.59168461      12.88730609
H        0.63756609      16.92429854      14.15225768
H        1.90903545      14.41341379      14.12692588
6
Lattice="2.5445879 0.0 0.0 -0.0 30.0 0.0 0.0 0.0 30.0" Properties=species:S:1:pos:R:3 pbc="T T T"
C        0.63600183      15.85126114      14.30991175
C        1.90830613      15.48590151      13.96619663
H        0.63736849      15.76002416      15.40709679
H        1.90857955      15.57694109      12.86906236
H        0.63736379      16.94294589      14.16535087
H        1.90895039      14.39467611      14.11343075
6
Lattice="2.5445879 0.0 0.0 -0.0 30.0 0.0 0.0 0.0 30.0" Properties=species:S:1:pos:R:3 pbc="T T T"
C        0.63602652      15.87144595      14.32927646
C        1.90832844      15.46570293      13.94687386
H        0.63716540      15.77478513      15.42537566
H        1.90855629      15.56219758      12.85081863
H        0.63716149      16.96159324      14.17844406
H        1.90886532      14.37593842      14.09993563
6
Lattice="2.5445879 0.0 0.0 -0.0 30.0 0.0 0.0 0.0 30.0" Properties=species:S:1:pos:R:3 pbc="T T T"
C        0.63605122      15.89163076      14.34864116
C        1.90835075      15.44550434      13.92755109
H        0.63696232      15.78954610      15.44365453
H        1.90853303      15.54745406      12.83257491
H        0.63695919      16.98024059      14.19153724
H        1.90878026      14.35720074      14.08644050
6
Lattice="2.5445879 0.0 0.0 -0.0 30.0 0.0 0.0 0.0 30.0" Properties=species:S:1:pos:R:3 pbc="T T T"
C        0.63607591      15.91181557      14.36800587
C        1.90837307      15.42530576      13.90822832
H        0.63675924      15.80430708      15.46193340
H        1.90850977      15.53271055      12.81433118
H        0.63675689      16.99888795      14.20463043
H        1.90869519      14.33846305      14.07294538
6
Lattice="2.5445879 0.0 0.0 -0.0 30.0 0.0 0.0 0.0 30.0" Properties=species:S:1:pos:R:3 pbc="T T T"
C        0.63610061      15.93200038      14.38737058
C        1.90839538      15.40510717      13.88890554
H        0.63655616      15.81906805      15.48021226
H        1.90848652      15.51796703      12.79608745
H        0.63655460      17.01753530      14.21772362
H        1.90861013      14.31972537      14.05945025
6
Lattice="2.5445879 0.0 0.0 -0.0 30.0 0.0 0.0 0.0 30.0" Properties=species:S:1:pos:R:3 pbc="T T T"
C        0.63612530      15.95218519      14.40673529
C        1.90841769      15.38490859      13.86958277
H        0.63635308      15.83382903      15.49849113
H        1.90846326      15.50322352      12.77784373
H        0.63635230      17.03618265      14.23081681
H        1.90852506      14.30098768      14.04595513
6
Lattice="2.5445879 0.0 0.0 -0.0 30.0 0.0 0.0 0.0 30.0" Properties=species:S:1:pos:R:3 pbc="T T T"
C        0.63615000      15.97237000      14.42610000
C        1.90844000      15.36471000      13.85026000
H        0.63615000      15.84859000      15.51677000
H        1.90844000      15.48848000      12.75960000
H        0.63615000      17.05483000      14.24391000
H        1.90844000      14.28225000      14.03246000
6
Lattice="2.5445879 0.0 0.0 -0.0 30.0 0.0 0.0 0.0 30.0" Properties=species:S:1:pos:R:3 pbc="T T T"
C        0.63617470      15.99255481      14.44546471
C        1.90846231      15.34451141      13.83093723
H        0.63594692      15.86335097      15.53504887
H        1.90841674      15.47373648      12.74135627
H        0.63594770      17.07347735      14.25700319
H        1.90835494      14.26351232      14.01896487
6
Lattice="2.5445879 0.0 0.0 -0.0 30.0 0.0 0.0 0.0 30.0" Properties=species:S:1:pos:R:3 pbc="T T T"
C        0.63619939      16.01273962      14.46482942
C        1.90848462      15.32431283      13.81161446
H        0.63574384      15.87811195      15.55332774
H        1.90839348      15.45899297      12.72311255
H        0.63574540      17.09212470      14.27009638
H        1.90826987      14.24477463      14.00546975
6
Lattice="2.5445879 0.0 0.0 -0.0 30.0 0.0 0.0 0.0 30.0" Properties=species:S:1:pos:R:3 pbc="T T T"
C        0.63622409      16.03292443      14.48419413
C        1.90850693      15.30411424      13.79229168
H        0.63554076      15.89287292      15.57160660
H        1.90837023      15.44424945      12.70486882
H        0.63554311      17.11077205      14.28318957
H        1.90818481      14.22603695      13.99197462
6
Lattice="2.5445879 0.0 0.0 -0.0 30.0 0.0 0.0 0.0 30.0" Properties=species:S:1:pos:R:3 pbc="T T T"
C        0.63624878      16.05310924      14.50355884
C        1.90852925      15.28391566      13.77296891
H        0.63533768      15.90763390      15.58988547
H        1.90834697      15.42950594      12.68662509
H        0.63534081      17.12941941      14.29628276
H        1.90809974      14.20729926      13.97847950
6
Lattice="2.5445879 0.0 0.0 -0.0 30.0 0.0 0.0 0.0 30.0" Properties=species:S:1:pos:R:3 pbc="T T T"
C        0.63627348      16.07329405      14.52292354
C        1.90855156      15.26371707      13.75364614
H        0.63513460      15.92239487      15.60816434
H        1.90832371      15.41476242      12.66838137
H        0.63513851      17.14806676      14.30937594
H        1.90801468      14.18856158      13.96498437
6
Lattice="2.5445879 0.0 0.0 -0.0 30.0 0.0 0.0 0.0 30.0" Properties=species:S:1:pos:R:3 pbc="T T T"
C        0.63629817      16.09347886      14.54228825
C        1.90857387      15.24351849      13.73432337
H        0.63493151      15.93715584      15.62644321
H        1.90830045      15.40001891      12.65013764
H        0.63493621      17.16671411      14.32246913
H        1.90792961      14.16982389      13.95148925
6
Lattice="2.5445879 0.0 0.0 -0.0 30.0 0.0 0.0 0.0 30.0" Properties=species:S:1:pos:R:3 pbc="T T T"
C        0.63632287      16.11366367      14.56165296
C        1.90859618      15.22331990      13.71500060
H        0.63472843      15.95191682      15.64472208
H        1.90827720      15.38527539      12.63189391
H        0.63473391      17.18536146      14.33556232
H        1.90784455      14.15108621      13.93799412
6
Lattice="2.5445879 0.0 0.0 -0.0 30.0 0.0 0.0 0.0 30.0" Properties=species:S:1:pos:R:3 pbc="T T T"
C        0.63629817      16.09347886      14.54228825
C        1.90857387      15.24351849      13.73432337
H        0.63493151      15.93715584      15.62644321
H        1.90830045      15.40001891      12.65013764
H        0.63493621      17.16671411      14.32246913
H        1.90792961      14.16982389      13.95148925
6
Lattice="2.5445879 0.0 0.0 -0.0 30.0 0.0 0.0 0.0 30.0" Properties=species:S:1:pos:R:3 pbc="T T T"
C        0.63627348      16.07329405      14.52292354
C        1.90855156      15.26371707      13.75364614
H        0.63513460      15.92239487      15.60816434
H        1.90832371      15.41476242      12.66838137
H        0.63513851      17.14806676      14.30937594
H        1.90801468      14.18856158      13.96498437
6
Lattice="2.5445879 0.0 0.0 -0.0 30.0 0.0 0.0 0.0 30.0" Properties=species:S:1:pos:R:3 pbc="T T T"
C        0.63624878      16.05310924      14.50355884
C        1.90852925      15.28391566      13.77296891
H        0.63533768      15.90763390      15.58988547
H        1.90834697      15.42950594      12.68662509
H        0.63534081      17.12941941      14.29628276
H        1.90809974      14.20729926      13.97847950
6
Lattice="2.5445879 0.0 0.0 -0.0 30.0 0.0 0.0 0.0 30.0" Properties=species:S:1:pos:R:3 pbc="T T T"
C        0.63622409      16.03292443      14.48419413
C        1.90850693      15.30411424      13.79229168
H        0.63554076      15.89287292      15.57160660
H        1.90837023      15.44424945      12.70486882
H        0.63554311      17.11077205      14.28318957
H        1.90818481      14.22603695      13.99197462
6
Lattice="2.5445879 0.0 0.0 -0.0 30.0 0.0 0.0 0.0 30.0" Properties=species:S:1:pos:R:3 pbc="T T T"
C        0.63619939      16.01273962      14.46482942
C        1.90848462      15.32431283      13.81161446
H        0.63574384      15.87811195      15.55332774
H        1.90839348      15.45899297      12.72311255
H        0.63574540      17.09212470      14.27009638
H        1.90826987      14.24477463      14.00546975
6
Lattice="2.5445879 0.0 0.0 -0.0 30.0 0.0 0.0 0.0 30.0" Properties=species:S:1:pos:R:3 pbc="T T T"
C        0.63617470      15.99255481      14.44546471
C        1.90846231      15.34451141      13.83093723
H        0.63594692      15.86335097      15.53504887
H        1.90841674      15.47373648      12.74135627
H        0.63594770      17.07347735      14.25700319
H        1.90835494      14.26351232      14.01896487
6
Lattice="2.5445879 0.0 0.0 -0.0 30.0 0.0 0.0 0.0 30.0" Properties=species:S:1:pos:R:3 pbc="T T T"
C        0.63615000      15.97237000      14.42610000
C        1.90844000      15.36471000      13.85026000
H        0.63615000      15.84859000      15.51677000
H        1.90844000      15.48848000      12.75960000
H        0.63615000      17.05483000      14.24391000
H        1.90844000      14.28225000      14.03246000
6
Lattice="2.5445879 0.0 0.0 -0.0 30.0 0.0 0.0 0.0 30.0" Properties=species:S:1:pos:R:3 pbc="T T T"
C        0.63612530      15.95218519      14.40673529
C        1.90841769      15.38490859      13.86958277
H        0.63635308      15.83382903      15.49849113
H        1.90846326      15.50322352      12.77784373
H        0.63635230      17.03618265      14.23081681
H        1.90852506      14.30098768      14.04595513
6
Lattice="2.5445879 0.0 0.0 -0.0 30.0 0.0 0.0 0.0 30.0" Properties=species:S:1:pos:R:3 pbc="T T T"
C        0.63610061      15.93200038      14.38737058
C        1.90839538      15.40510717      13.88890554
H        0.63655616      15.81906805      15.48021226
H        1.90848652      15.51796703      12.79608745
H        0.63655460      17.01753530      14.21772362
H        1.90861013      14.31972537      14.05945025
6
Lattice="2.5445879 0.0 0.0 -0.0 30.0 0.0 0.0 0.0 30.0" Properties=species:S:1:pos:R:3 pbc="T T T"
C        0.63607591      15.91181557      14.36800587
C        1.90837307      15.42530576      13.90822832
H        0.63675924      15.80430708      15.46193340
H        1.90850977      15.53271055      12.81433118
H        0.63675689      16.99888795      14.20463043
H        1.90869519      14.33846305      14.07294538
6
Lattice="2.5445879 0.0 0.0 -0.0 30.0 0.0 0.0 0.0 30.0" Properties=species:S:1:pos:R:3 pbc="T T T"
C        0.63605122      15.89163076      14.34864116
C        1.90835075      15.44550434      13.92755109
H        0.63696232      15.78954610      15.44365453
H        1.90853303      15.54745406      12.83257491
H        0.63695919      16.98024059      14.19153724
H        1.90878026      14.35720074      14.08644050
6
Lattice="2.5445879 0.0 0.0 -0.0 30.0 0.0 0.0 0.0 30.0" Properties=species:S:1:pos:R:3 pbc="T T T"
C        0.63602652      15.87144595      14.32927646
C        1.90832844      15.46570293      13.94687386
H        0.63716540      15.77478513      15.42537566
H        1.90855629      15.56219758      12.85081863
H        0.63716149      16.96159324      14.17844406
H        1.90886532      14.37593842      14.09993563
6
Lattice="2.5445879 0.0 0.0 -0.0 30.0 0.0 0.0 0.0 30.0" Properties=species:S:1:pos:R:3 pbc="T T T"
C        0.63600183      15.85126114      14.30991175
C        1.90830613      15.48590151      13.96619663
H        0.63736849      15.76002416      15.40709679
H        1.90857955      15.57694109      12.86906236
H        0.63736379      16.94294589      14.16535087
H        1.90895039      14.39467611      14.11343075
