6
Lattice="2.5445879 0.0 0.0 -0.0 30.0 0.0 0.0 0.0 30.0" Properties=species:S:1:pos:R:3 pbc="T T T"
C        0.63616124      15.96228742      14.41789425
C        1.90842917      15.37446853      13.85763011
H        0.63622828      15.82990789      15.64408485
H        1.90846067      15.50578835      12.64333498
H        0.63622464      17.19595226      14.21609726
H        1.90843672      14.14671472      14.05915601
6
Lattice="2.5445879 0.0 0.0 -0.0 30.0 0.0 0.0 0.0 30.0" Properties=species:S:1:pos:R:3 pbc="T T T"
C        0.63615963      15.96372779      14.41906650
C        1.90843072      15.37307446      13.85657723
H        0.63621709      15.83257676      15.62589702
H        1.90845771      15.50331573      12.65994427
H        0.63621398      17.17579193      14.22007051
H        1.90843719      14.16607690      14.05534230
6
Lattice="2.5445879 0.0 0.0 -0.0 30.0 0.0 0.0 0.0 30.0" Properties=species:S:1:pos:R:3 pbc="T T T"
C        0.63615803      15.96516816      14.42023875
C        1.90843227      15.37168038      13.85552436
H        0.63620591      15.83524564      15.60770918
H        1.90845476      15.50084311      12.67655356
H        0.63620331      17.15563161      14.22404376
H        1.90843766      14.18543908      14.05152858
6
Lattice="2.5445879 0.0 0.0 -0.0 30.0 0.0 0.0 0.0 30.0" Properties=species:S:1:pos:R:3 pbc="T T T"
C        0.63615642      15.96660853      14.42141100
C        1.90843381      15.37028631      13.85447149
H        0.63619473      15.83791451      15.58952134
H        1.90845181      15.49837049      12.69316285
H        0.63619265      17.13547129      14.22801701
H        1.90843813      14.20480127      14.04771486
6
Lattice="2.5445879 0.0 0.0 -0.0 30.0 0.0 0.0 0.0 30.0" Properties=species:S:1:pos:R:3 pbc="T T T"
C        0.63615482      15.96804890      14.42258325
C        1.90843536      15.36889223      13.85341862
H        0.63618355      15.84058338      15.57133351
H        1.90844886      15.49589786      12.70977213
H        0.63618199      17.11531097      14.23199025
H        1.90843860      14.22416345      14.04390115
6
Lattice="2.5445879 0.0 0.0 -0.0 30.0 0.0 0.0 0.0 30.0" Properties=species:S:1:pos:R:3 pbc="T T T"
C        0.63615321      15.96948926      14.42375550
C        1.90843691      15.36749815      13.85236574
H        0.63617236      15.84325225      15.55314567
H        1.90844590      15.49342524      12.72638142
H        0.63617133      17.09515064      14.23596350
H        1.90843906      14.24352563      14.04008743
6
Lattice="2.5445879 0.0 0.0 -0.0 30.0 0.0 0.0 0.0 30.0" Properties=species:S:1:pos:R:3 pbc="T T T"
C        0.63615161      15.97092963      14.42492775
C        1.90843845      15.36610408      13.85131287
H        0.63616118      15.84592113      15.53495784
H        1.90844295      15.49095262      12.74299071
H        0.63616066      17.07499032      14.23993675
H        1.90843953      14.26288782      14.03627372
6
Lattice="2.5445879 0.0 0.0 -0.0 30.0 0.0 0.0 0.0 30.0" Properties=species:S:1:pos:R:3 pbc="T T T"
C        0.63615000      15.97237000      14.42610000
C        1.90844000      15.36471000      13.85026000
H        0.63615000      15.84859000      15.51677000
H        1.90844000      15.48848000      12.75960000
H        0.63615000      17.05483000      14.24391000
H        1.90844000      14.28225000      14.03246000
6
Lattice="2.5445879 0.0 0.0 -0.0 30.0 0.0 0.0 0.0 30.0" Properties=species:S:1:pos:R:3 pbc="T T T"
C        0.63614839      15.97381037      14.42727225
C        1.90844155      15.36331592      13.84920713
H        0.63613882      15.85125887      15.49858216
H        1.90843705      15.48600738      12.77620929
H        0.63613934      17.03466968      14.24788325
H        1.90844047      14.30161218      14.02864628
6
Lattice="2.5445879 0.0 0.0 -0.0 30.0 0.0 0.0 0.0 30.0" Properties=species:S:1:pos:R:3 pbc="T T T"
C        0.63614679      15.97525074      14.42844450
C        1.90844309      15.36192185      13.84815426
H        0.63612764      15.85392775      15.48039433
H        1.90843410      15.48353476      12.79281858
H        0.63612867      17.01450936      14.25185650
H        1.90844094      14.32097437      14.02483257
6
Lattice="2.5445879 0.0 0.0 -0.0 30.0 0.0 0.0 0.0 30.0" Properties=species:S:1:pos:R:3 pbc="T T T"
C        0.63614518      15.97669110      14.42961675
C        1.90844464      15.36052777      13.84710138
H        0.63611645      15.85659662      15.46220649
H        1.90843114      15.48106214      12.80942787
H        0.63611801      16.99434903      14.25582975
H        1.90844140      14.34033655      14.02101885
6
Lattice="2.5445879 0.0 0.0 -0.0 30.0 0.0 0.0 0.0 30.0" Properties=species:S:1:pos:R:3 pbc="T T T"
C        0.63614358      15.97813147      14.43078900
C        1.90844619      15.35913369      13.84604851
H        0.63610527      15.85926549      15.44401866
H        1.90842819      15.47858951      12.82603715
H        0.63610735      16.97418871      14.25980299
H        1.90844187      14.35969873      14.01720514
6
Lattice="2.5445879 0.0 0.0 -0.0 30.0 0.0 0.0 0.0 30.0" Properties=species:S:1:pos:R:3 pbc="T T T"
C        0.63614197      15.97957184      14.43196125
C        1.90844773      15.35773962      13.84499564
H        0.63609409      15.86193436      15.42583082
H        1.90842524      15.47611689      12.84264644
H        0.63609669      16.95402839      14.26377624
H        1.90844234      14.37906092      14.01339142
6
Lattice="2.5445879 0.0 0.0 -0.0 30.0 0.0 0.0 0.0 30.0" Properties=species:S:1:pos:R:3 pbc="T T T"
C        0.63614037      15.98101221      14.43313350
C        1.90844928      15.35634554      13.84394277
H        0.63608291      15.86460324      15.40764298
H        1.90842229      15.47364427      12.85925573
H        0.63608602      16.93386807      14.26774949
H        1.90844281      14.39842310      14.00957770
6
Lattice="2.5445879 0.0 0.0 -0.0 30.0 0.0 0.0 0.0 30.0" Properties=species:S:1:pos:R:3 pbc="T T T"
C        0.63613876      15.98245258      14.43430575
C        1.90845083      15.35495147      13.84288989
H        0.63607172      15.86727211      15.38945515
H        1.90841933      15.47117165      12.87586502
H        0.63607536      16.91370774      14.27172274
H        1.90844328      14.41778528      14.00576399
6
Lattice="2.5445879 0.0 0.0 -0.0 30.0 0.0 0.0 0.0 30.0" Properties=species:S:1:pos:R:3 pbc="T T T"
C        0.63614037      15.98101221      14.43313350
C        1.90844928      15.35634554      13.84394277
H        0.63608291      15.86460324      15.40764298
H        1.90842229      15.47364427      12.85925573
H        0.63608602      16.93386807      14.26774949
H        1.90844281      14.39842310      14.00957770
6
Lattice="2.5445879 0.0 0.0 -0.0 30.0 0.0 0.0 0.0 30.0" Properties=species:S:1:pos:R:3 pbc="T T T"
C        0.63614197      15.97957184      14.43196125
C        1.90844773      15.35773962      13.84499564
H        0.63609409      15.86193436      15.42583082
H        1.90842524      15.47611689      12.84264644
H        0.63609669      16.95402839      14.26377624
H        1.90844234      14.37906092      14.01339142
6
Lattice="2.5445879 0.0 0.0 -0.0 30.0 0.0 0.0 0.0 30.0" Properties=species:S:1:pos:R:3 pbc="T T T"
C        0.63614358      15.97813147      14.43078900
C        1.90844619      15.35913369      13.84604851
H        0.63610527      15.85926549      15.44401866
H        1.90842819      15.47858951      12.82603715
H        0.63610735      16.97418871      14.25980299
H        1.90844187      14.35969873      14.01720514
6
Lattice="2.5445879 0.0 0.0 -0.0 30.0 0.0 0.0 0.0 30.0" Properties=species:S:1:pos:R:3 pbc="T T T"
C        0.63614518      15.97669110      14.42961675
C        1.90844464      15.36052777      13.84710138
H        0.63611645      15.85659662      15.46220649
H        1.90843114      15.48106214      12.80942787
H        0.63611801      16.99434903      14.25582975
H        1.90844140      14.34033655      14.02101885
6
Lattice="2.5445879 0.0 0.0 -0.0 30.0 0.0 0.0 0.0 30.0" Properties=species:S:1:pos:R:3 pbc="T T T"
C        0.63614679      15.97525074      14.42844450
C        1.90844309      15.36192185      13.84815426
H        0.63612764      15.85392775      15.48039433
H        1.90843410      15.48353476      12.79281858
H        0.63612867      17.01450936      14.25185650
H        1.90844094      14.32097437      14.02483257
6
Lattice="2.5445879 0.0 0.0 -0.0 30.0 0.0 0.0 0.0 30.0" Properties=species:S:1:pos:R:3 pbc="T T T"
C        0.63614839      15.97381037      14.42727225
C        1.90844155      15.36331592      13.84920713
H        0.63613882      15.85125887      15.49858216
H        1.90843705      15.48600738      12.77620929
H        0.63613934      17.03466968      14.24788325
H        1.90844047      14.30161218      14.02864628
6
Lattice="2.5445879 0.0 0.0 -0.0 30.0 0.0 0.0 0.0 30.0" Properties=species:S:1:pos:R:3 pbc="T T T"
C        0.63615000      15.97237000      14.42610000
C        1.90844000      15.36471000      13.85026000
H        0.63615000      15.84859000      15.51677000
H        1.90844000      15.48848000      12.75960000
H        0.63615000      17.05483000      14.24391000
H        1.90844000      14.28225000      14.03246000
6
Lattice="2.5445879 0.0 0.0 -0.0 30.0 0.0 0.0 0.0 30.0" Properties=species:S:1:pos:R:3 pbc="T T T"
C        0.63615161      15.97092963      14.42492775
C        1.90843845      15.36610408      13.85131287
H        0.63616118      15.84592113      15.53495784
H        1.90844295      15.49095262      12.74299071
H        0.63616066      17.07499032      14.23993675
H        1.90843953      14.26288782      14.03627372
6
Lattice="2.5445879 0.0 0.0 -0.0 30.0 0.0 0.0 0.0 30.0" Properties=species:S:1:pos:R:3 pbc="T T T"
C        0.63615321      15.96948926      14.42375550
C        1.90843691      15.36749815      13.85236574
H        0.63617236      15.84325225      15.55314567
H        1.90844590      15.49342524      12.72638142
H        0.63617133      17.09515064      14.23596350
H        1.90843906      14.24352563      14.04008743
6
Lattice="2.5445879 0.0 0.0 -0.0 30.0 0.0 0.0 0.0 30.0" Properties=species:S:1:pos:R:3 pbc="T T T"
C        0.63615482      15.96804890      14.42258325
C        1.90843536      15.36889223      13.85341862
H        0.63618355      15.84058338      15.57133351
H        1.90844886      15.49589786      12.70977213
H        0.63618199      17.11531097      14.23199025
H        1.90843860      14.22416345      14.04390115
6
Lattice="2.5445879 0.0 0.0 -0.0 30.0 0.0 0.0 0.0 30.0" Properties=species:S:1:pos:R:3 pbc="T T T"
C        0.63615642      15.96660853      14.42141100
C        1.90843381      15.37028631      13.85447149
H        0.63619473      15.83791451      15.58952134
H        1.90845181      15.49837049      12.69316285
H        0.63619265      17.13547129      14.22801701
H        1.90843813      14.20480127      14.04771486
6
Lattice="2.5445879 0.0 0.0 -0.0 30.0 0.0 0.0 0.0 30.0" Properties=species:S:1:pos:R:3 pbc="T T T"
C        0.63615803      15.96516816      14.42023875
C        1.90843227      15.37168038      13.85552436
H        0.63620591      15.83524564      15.60770918
H        1.90845476      15.50084311      12.67655356
H        0.63620331      17.15563161      14.22404376
H        1.90843766      14.18543908      14.05152858
6
Lattice="2.5445879 0.0 0.0 -0.0 30.0 0.0 0.0 0.0 30.0" Properties=species:S:1:pos:R:3 pbc="T T T"
C        0.63615963      15.96372779      14.41906650
C        1.90843072      15.37307446      13.85657723
H        0.63621709      15.83257676      15.62589702
H        1.90845771      15.50331573      12.65994427
H        0.63621398      17.17579193      14.22007051
H        1.90843719      14.16607690      14.05534230
