6
Lattice="2.5445879 0.0 0.0 -0.0 30.0 0.0 0.0 0.0 30.0" Properties=species:S:1:pos:R:3 pbc="T T T"
C        0.56599037      15.97243003      14.42616353
C        1.97857483      15.36465978      13.85020021
H        0.82443115      15.84854978      15.51681481
H        1.72024127      15.48839739      12.75957267
H        0.82411412      17.05486386      14.24387194
H        1.72069509      14.28222000      14.03243580
6
Lattice="2.5445879 0.0 0.0 -0.0 30.0 0.0 0.0 0.0 30.0" Properties=species:S:1:pos:R:3 pbc="T T T"
C        0.57601317      15.97242145      14.42615445
C        1.96855557      15.36466696      13.85020875
H        0.79753384      15.84855553      15.51680841
H        1.74712680      15.48840919      12.75957657
H        0.79726211      17.05485902      14.24387738
H        1.74751579      14.28222428      14.03243926
6
Lattice="2.5445879 0.0 0.0 -0.0 30.0 0.0 0.0 0.0 30.0" Properties=species:S:1:pos:R:3 pbc="T T T"
C        0.58603598      15.97241288      14.42614538
C        1.95853631      15.36467413      13.85021729
H        0.77063653      15.84856127      15.51680201
H        1.77401233      15.48842099      12.75958048
H        0.77041009      17.05485419      14.24388281
H        1.77433649      14.28222857      14.03244272
6
Lattice="2.5445879 0.0 0.0 -0.0 30.0 0.0 0.0 0.0 30.0" Properties=species:S:1:pos:R:3 pbc="T T T"
C        0.59605878      15.97240430      14.42613630
C        1.94851705      15.36468130      13.85022583
H        0.74373923      15.84856702      15.51679560
H        1.80089787      15.48843279      12.75958438
H        0.74355807      17.05484935      14.24388825
H        1.80115719      14.28223286      14.03244617
6
Lattice="2.5445879 0.0 0.0 -0.0 30.0 0.0 0.0 0.0 30.0" Properties=species:S:1:pos:R:3 pbc="T T T"
C        0.60608159      15.97239573      14.42612723
C        1.93849778      15.36468848      13.85023438
H        0.71684192      15.84857276      15.51678920
H        1.82778340      15.48844460      12.75958829
H        0.71670605      17.05484451      14.24389369
H        1.82797790      14.28223714      14.03244963
6
Lattice="2.5445879 0.0 0.0 -0.0 30.0 0.0 0.0 0.0 30.0" Properties=species:S:1:pos:R:3 pbc="T T T"
C        0.61610439      15.97238715      14.42611815
C        1.92847852      15.36469565      13.85024292
H        0.68994461      15.84857851      15.51678280
H        1.85466893      15.48845640      12.75959219
H        0.68985404      17.05483967      14.24389913
H        1.85479860      14.28224143      14.03245309
6
Lattice="2.5445879 0.0 0.0 -0.0 30.0 0.0 0.0 0.0 30.0" Properties=species:S:1:pos:R:3 pbc="T T T"
C        0.62612720      15.97237858      14.42610908
C        1.91845926      15.36470283      13.85025146
H        0.66304731      15.84858425      15.51677640
H        1.88155447      15.48846820      12.75959610
H        0.66300202      17.05483484      14.24390456
H        1.88161930      14.28224571      14.03245654
6
Lattice="2.5445879 0.0 0.0 -0.0 30.0 0.0 0.0 0.0 30.0" Properties=species:S:1:pos:R:3 pbc="T T T"
C        0.63615000      15.97237000      14.42610000
C        1.90844000      15.36471000      13.85026000
H        0.63615000      15.84859000      15.51677000
H        1.90844000      15.48848000      12.75960000
H        0.63615000      17.05483000      14.24391000
H        1.90844000      14.28225000      14.03246000
6
Lattice="2.5445879 0.0 0.0 -0.0 30.0 0.0 0.0 0.0 30.0" Properties=species:S:1:pos:R:3 pbc="T T T"
C        0.64617280      15.97236142      14.42609092
C        1.89842074      15.36471717      13.85026854
H        0.60925269      15.84859575      15.51676360
H        1.93532553      15.48849180      12.75960390
H        0.60929798      17.05482516      14.24391544
H        1.93526070      14.28225429      14.03246346
6
Lattice="2.5445879 0.0 0.0 -0.0 30.0 0.0 0.0 0.0 30.0" Properties=species:S:1:pos:R:3 pbc="T T T"
C        0.65619561      15.97235285      14.42608185
C        1.88840148      15.36472435      13.85027708
H        0.58235539      15.84860149      15.51675720
H        1.96221107      15.48850360      12.75960781
H        0.58244596      17.05482033      14.24392087
H        1.96208140      14.28225857      14.03246691
6
Lattice="2.5445879 0.0 0.0 -0.0 30.0 0.0 0.0 0.0 30.0" Properties=species:S:1:pos:R:3 pbc="T T T"
C        0.66621841      15.97234427      14.42607277
C        1.87838222      15.36473152      13.85028562
H        0.55545808      15.84860724      15.51675080
H        1.98909660      15.48851540      12.75961171
H        0.55559395      17.05481549      14.24392631
H        1.98890210      14.28226286      14.03247037
6
Lattice="2.5445879 0.0 0.0 -0.0 30.0 0.0 0.0 0.0 30.0" Properties=species:S:1:pos:R:3 pbc="T T T"
C        0.67624122      15.97233570      14.42606370
C        1.86836295      15.36473870      13.85029417
H        0.52856077      15.84861298      15.51674440
H        2.01598213      15.48852721      12.75961562
H        0.52874193      17.05481065      14.24393175
H        2.01572281      14.28226714      14.03247383
6
Lattice="2.5445879 0.0 0.0 -0.0 30.0 0.0 0.0 0.0 30.0" Properties=species:S:1:pos:R:3 pbc="T T T"
C        0.68626402      15.97232712      14.42605462
C        1.85834369      15.36474587      13.85030271
H        0.50166347      15.84861873      15.51673799
H        2.04286767      15.48853901      12.75961952
H        0.50188991      17.05480581      14.24393719
H        2.04254351      14.28227143      14.03247728
6
Lattice="2.5445879 0.0 0.0 -0.0 30.0 0.0 0.0 0.0 30.0" Properties=species:S:1:pos:R:3 pbc="T T T"
C        0.69628683      15.97231855      14.42604555
C        1.84832443      15.36475304      13.85031125
H        0.47476616      15.84862447      15.51673159
H        2.06975320      15.48855081      12.75962343
H        0.47503789      17.05480098      14.24394262
H        2.06936421      14.28227572      14.03248074
6
Lattice="2.5445879 0.0 0.0 -0.0 30.0 0.0 0.0 0.0 30.0" Properties=species:S:1:pos:R:3 pbc="T T T"
C        0.70630963      15.97230997      14.42603647
C        1.83830517      15.36476022      13.85031979
H        0.44786885      15.84863022      15.51672519
H        2.09663873      15.48856261      12.75962733
H        0.44818588      17.05479614      14.24394806
H        2.09618491      14.28228000      14.03248420
6
Lattice="2.5445879 0.0 0.0 -0.0 30.0 0.0 0.0 0.0 30.0" Properties=species:S:1:pos:R:3 pbc="T T T"
C        0.69628683      15.97231855      14.42604555
C        1.84832443      15.36475304      13.85031125
H        0.47476616      15.84862447      15.51673159
H        2.06975320      15.48855081      12.75962343
H        0.47503789      17.05480098      14.24394262
H        2.06936421      14.28227572      14.03248074
6
Lattice="2.5445879 0.0 0.0 -0.0 30.0 0.0 0.0 0.0 30.0" Properties=species:S:1:pos:R:3 pbc="T T T"
C        0.68626402      15.97232712      14.42605462
C        1.85834369      15.36474587      13.85030271
H        0.50166347      15.84861873      15.51673799
H        2.04286767      15.48853901      12.75961952
H        0.50188991      17.05480581      14.24393719
H        2.04254351      14.28227143      14.03247728
6
Lattice="2.5445879 0.0 0.0 -0.0 30.0 0.0 0.0 0.0 30.0" Properties=species:S:1:pos:R:3 pbc="T T T"
C        0.67624122      15.97233570      14.42606370
C        1.86836295      15.36473870      13.85029417
H        0.52856077      15.84861298      15.51674440
H        2.01598213      15.48852721      12.75961562
H        0.52874193      17.05481065      14.24393175
H        2.01572281      14.28226714      14.03247383
6
Lattice="2.5445879 0.0 0.0 -0.0 30.0 0.0 0.0 0.0 30.0" Properties=species:S:1:pos:R:3 pbc="T T T"
C        0.66621841      15.97234427      14.42607277
C        1.87838222      15.36473152      13.85028562
H        0.55545808      15.84860724      15.51675080
H        1.98909660      15.48851540      12.75961171
H        0.55559395      17.05481549      14.24392631
H        1.98890210      14.28226286      14.03247037
6
Lattice="2.5445879 0.0 0.0 -0.0 30.0 0.0 0.0 0.0 30.0" Properties=species:S:1:pos:R:3 pbc="T T T"
C        0.65619561      15.97235285      14.42608185
C        1.88840148      15.36472435      13.85027708
H        0.58235539      15.84860149      15.51675720
H        1.96221107      15.48850360      12.75960781
H        0.58244596      17.05482033      14.24392087
H        1.96208140      14.28225857      14.03246691
6
Lattice="2.5445879 0.0 0.0 -0.0 30.0 0.0 0.0 0.0 30.0" Properties=species:S:1:pos:R:3 pbc="T T T"
C        0.64617280      15.97236142      14.42609092
C        1.89842074      15.36471717      13.85026854
H        0.60925269      15.84859575      15.51676360
H        1.93532553      15.48849180      12.75960390
H        0.60929798      17.05482516      14.24391544
H        1.93526070      14.28225429      14.03246346
6
Lattice="2.5445879 0.0 0.0 -0.0 30.0 0.0 0.0 0.0 30.0" Properties=species:S:1:pos:R:3 pbc="T T T"
C        0.63615000      15.97237000      14.42610000
C        1.90844000      15.36471000      13.85026000
H        0.63615000      15.84859000      15.51677000
H        1.90844000      15.48848000      12.75960000
H        0.63615000      17.05483000      14.24391000
H        1.90844000      14.28225000      14.03246000
6
Lattice="2.5445879 0.0 0.0 -0.0 30.0 0.0 0.0 0.0 30.0" Properties=species:S:1:pos:R:3 pbc="T T T"
C        0.62612720      15.97237858      14.42610908
C        1.91845926      15.36470283      13.85025146
H        0.66304731      15.84858425      15.51677640
H        1.88155447      15.48846820      12.75959610
H        0.66300202      17.05483484      14.24390456
H        1.88161930      14.28224571      14.03245654
6
Lattice="2.5445879 0.0 0.0 -0.0 30.0 0.0 0.0 0.0 30.0" Properties=species:S:1:pos:R:3 pbc="T T T"
C        0.61610439      15.97238715      14.42611815
C        1.92847852      15.36469565      13.85024292
H        0.68994461      15.84857851      15.51678280
H        1.85466893      15.48845640      12.75959219
H        0.68985404      17.05483967      14.24389913
H        1.85479860      14.28224143      14.03245309
6
Lattice="2.5445879 0.0 0.0 -0.0 30.0 0.0 0.0 0.0 30.0" Properties=species:S:1:pos:R:3 pbc="T T T"
C        0.60608159      15.97239573      14.42612723
C        1.93849778      15.36468848      13.85023438
H        0.71684192      15.84857276      15.51678920
H        1.82778340      15.48844460      12.75958829
H        0.71670605      17.05484451      14.24389369
H        1.82797790      14.28223714      14.03244963
6
Lattice="2.5445879 0.0 0.0 -0.0 30.0 0.0 0.0 0.0 30.0" Properties=species:S:1:pos:R:3 pbc="T T T"
C        0.59605878      15.97240430      14.42613630
C        1.94851705      15.36468130      13.85022583
H        0.74373923      15.84856702      15.51679560
H        1.80089787      15.48843279      12.75958438
H        0.74355807      17.05484935      14.24388825
H        1.80115719      14.28223286      14.03244617
6
Lattice="2.5445879 0.0 0.0 -0.0 30.0 0.0 0.0 0.0 30.0" Properties=species:S:1:pos:R:3 pbc="T T T"
C        0.58603598      15.97241288      14.42614538
C        1.95853631      15.36467413      13.85021729
H        0.77063653      15.84856127      15.51680201
H        1.77401233      15.48842099      12.75958048
H        0.77041009      17.05485419      14.24388281
H        1.77433649      14.28222857      14.03244272
6
Lattice="2.5445879 0.0 0.0 -0.0 30.0 0.0 0.0 0.0 30.0" Properties=species:S:1:pos:R:3 pbc="T T T"
C        0.57601317      15.97242145      14.42615445
C        1.96855557      15.36466696      13.85020875
H        0.79753384      15.84855553      15.51680841
H        1.74712680      15.48840919      12.75957657
H        0.79726211      17.05485902      14.24387738
H        1.74751579      14.28222428      14.03243926
