6
Lattice="2.5445879 0.0 0.0 -0.0 30.0 0.0 0.0 0.0 30.0" Properties=species:S:1:pos:R:3 pbc="T T T"
C        0.63615074      15.96024286      14.43865035
C        1.90843928      15.35282692      13.86293762
H        0.63615876      15.86227054      15.38849626
H        1.90842850      15.50250053      12.62918500
H        0.63615094      17.18566621      14.22262834
H        1.90843841      14.40978055      14.01182139
6
Lattice="2.5445879 0.0 0.0 -0.0 30.0 0.0 0.0 0.0 30.0" Properties=species:S:1:pos:R:3 pbc="T T T"
C        0.63615063      15.96197531      14.43685745
C        1.90843939      15.35452450      13.86112653
H        0.63615750      15.86031618      15.40682108
H        1.90843015      15.50049760      12.64781572
H        0.63615081      17.16697532      14.22566858
H        1.90843864      14.39156190      14.01476977
6
Lattice="2.5445879 0.0 0.0 -0.0 30.0 0.0 0.0 0.0 30.0" Properties=species:S:1:pos:R:3 pbc="T T T"
C        0.63615053      15.96370776      14.43506454
C        1.90843949      15.35622208      13.85931544
H        0.63615625      15.85836182      15.42514590
H        1.90843179      15.49849467      12.66644643
H        0.63615067      17.14828444      14.22870882
H        1.90843886      14.37334325      14.01771814
6
Lattice="2.5445879 0.0 0.0 -0.0 30.0 0.0 0.0 0.0 30.0" Properties=species:S:1:pos:R:3 pbc="T T T"
C        0.63615042      15.96544021      14.43327163
C        1.90843959      15.35791967      13.85750435
H        0.63615500      15.85640745      15.44347072
H        1.90843343      15.49649173      12.68507714
H        0.63615054      17.12959355      14.23174905
H        1.90843909      14.35512460      14.02066651
6
Lattice="2.5445879 0.0 0.0 -0.0 30.0 0.0 0.0 0.0 30.0" Properties=species:S:1:pos:R:3 pbc="T T T"
C        0.63615032      15.96717265      14.43147872
C        1.90843969      15.35961725      13.85569326
H        0.63615375      15.85445309      15.46179554
H        1.90843507      15.49448880      12.70370786
H        0.63615040      17.11090266      14.23478929
H        1.90843932      14.33690595      14.02361488
6
Lattice="2.5445879 0.0 0.0 -0.0 30.0 0.0 0.0 0.0 30.0" Properties=species:S:1:pos:R:3 pbc="T T T"
C        0.63615021      15.96890510      14.42968582
C        1.90843980      15.36131483      13.85388218
H        0.63615250      15.85249873      15.48012036
H        1.90843672      15.49248587      12.72233857
H        0.63615027      17.09221177      14.23782953
H        1.90843955      14.31868730      14.02656326
6
Lattice="2.5445879 0.0 0.0 -0.0 30.0 0.0 0.0 0.0 30.0" Properties=species:S:1:pos:R:3 pbc="T T T"
C        0.63615011      15.97063755      14.42789291
C        1.90843990      15.36301242      13.85207109
H        0.63615125      15.85054436      15.49844518
H        1.90843836      15.49048293      12.74096929
H        0.63615013      17.07352089      14.24086976
H        1.90843977      14.30046865      14.02951163
6
Lattice="2.5445879 0.0 0.0 -0.0 30.0 0.0 0.0 0.0 30.0" Properties=species:S:1:pos:R:3 pbc="T T T"
C        0.63615000      15.97237000      14.42610000
C        1.90844000      15.36471000      13.85026000
H        0.63615000      15.84859000      15.51677000
H        1.90844000      15.48848000      12.75960000
H        0.63615000      17.05483000      14.24391000
H        1.90844000      14.28225000      14.03246000
6
Lattice="2.5445879 0.0 0.0 -0.0 30.0 0.0 0.0 0.0 30.0" Properties=species:S:1:pos:R:3 pbc="T T T"
C        0.63614989      15.97410245      14.42430709
C        1.90844010      15.36640758      13.84844891
H        0.63614875      15.84663564      15.53509482
H        1.90844164      15.48647707      12.77823071
H        0.63614987      17.03613911      14.24695024
H        1.90844023      14.26403135      14.03540837
6
Lattice="2.5445879 0.0 0.0 -0.0 30.0 0.0 0.0 0.0 30.0" Properties=species:S:1:pos:R:3 pbc="T T T"
C        0.63614979      15.97583490      14.42251418
C        1.90844020      15.36810517      13.84663782
H        0.63614750      15.84468127      15.55341964
H        1.90844328      15.48447413      12.79686143
H        0.63614973      17.01744823      14.24999047
H        1.90844045      14.24581270      14.03835674
6
Lattice="2.5445879 0.0 0.0 -0.0 30.0 0.0 0.0 0.0 30.0" Properties=species:S:1:pos:R:3 pbc="T T T"
C        0.63614968      15.97756735      14.42072128
C        1.90844031      15.36980275      13.84482674
H        0.63614625      15.84272691      15.57174446
H        1.90844493      15.48247120      12.81549214
H        0.63614960      16.99875734      14.25303071
H        1.90844068      14.22759405      14.04130512
6
Lattice="2.5445879 0.0 0.0 -0.0 30.0 0.0 0.0 0.0 30.0" Properties=species:S:1:pos:R:3 pbc="T T T"
C        0.63614958      15.97929979      14.41892837
C        1.90844041      15.37150033      13.84301565
H        0.63614500      15.84077255      15.59006928
H        1.90844657      15.48046827      12.83412286
H        0.63614946      16.98006645      14.25607095
H        1.90844091      14.20937540      14.04425349
6
Lattice="2.5445879 0.0 0.0 -0.0 30.0 0.0 0.0 0.0 30.0" Properties=species:S:1:pos:R:3 pbc="T T T"
C        0.63614947      15.98103224      14.41713546
C        1.90844051      15.37319792      13.84120456
H        0.63614375      15.83881818      15.60839410
H        1.90844821      15.47846533      12.85275357
H        0.63614933      16.96137556      14.25911118
H        1.90844114      14.19115675      14.04720186
6
Lattice="2.5445879 0.0 0.0 -0.0 30.0 0.0 0.0 0.0 30.0" Properties=species:S:1:pos:R:3 pbc="T T T"
C        0.63614937      15.98276469      14.41534255
C        1.90844061      15.37489550      13.83939347
H        0.63614250      15.83686382      15.62671892
H        1.90844985      15.47646240      12.87138428
H        0.63614919      16.94268468      14.26215142
H        1.90844136      14.17293810      14.05015023
6
Lattice="2.5445879 0.0 0.0 -0.0 30.0 0.0 0.0 0.0 30.0" Properties=species:S:1:pos:R:3 pbc="T T T"
C        0.63614926      15.98449714      14.41354965
C        1.90844072      15.37659308      13.83758238
H        0.63614124      15.83490946      15.64504374
H        1.90845150      15.47445947      12.89001500
H        0.63614906      16.92399379      14.26519166
H        1.90844159      14.15471945      14.05309861
6
Lattice="2.5445879 0.0 0.0 -0.0 30.0 0.0 0.0 0.0 30.0" Properties=species:S:1:pos:R:3 pbc="T T T"
C        0.63614937      15.98276469      14.41534255
C        1.90844061      15.37489550      13.83939347
H        0.63614250      15.83686382      15.62671892
H        1.90844985      15.47646240      12.87138428
H        0.63614919      16.94268468      14.26215142
H        1.90844136      14.17293810      14.05015023
6
Lattice="2.5445879 0.0 0.0 -0.0 30.0 0.0 0.0 0.0 30.0" Properties=species:S:1:pos:R:3 pbc="T T T"
C        0.63614947      15.98103224      14.41713546
C        1.90844051      15.37319792      13.84120456
H        0.63614375      15.83881818      15.60839410
H        1.90844821      15.47846533      12.85275357
H        0.63614933      16.96137556      14.25911118
H        1.90844114      14.19115675      14.04720186
6
Lattice="2.5445879 0.0 0.0 -0.0 30.0 0.0 0.0 0.0 30.0" Properties=species:S:1:pos:R:3 pbc="T T T"
C        0.63614958      15.97929979      14.41892837
C        1.90844041      15.37150033      13.84301565
H        0.63614500      15.84077255      15.59006928
H        1.90844657      15.48046827      12.83412286
H        0.63614946      16.98006645      14.25607095
H        1.90844091      14.20937540      14.04425349
6
Lattice="2.5445879 0.0 0.0 -0.0 30.0 0.0 0.0 0.0 30.0" Properties=species:S:1:pos:R:3 pbc="T T T"
C        0.63614968      15.97756735      14.42072128
C        1.90844031      15.36980275      13.84482674
H        0.63614625      15.84272691      15.57174446
H        1.90844493      15.48247120      12.81549214
H        0.63614960      16.99875734      14.25303071
H        1.90844068      14.22759405      14.04130512
6
Lattice="2.5445879 0.0 0.0 -0.0 30.0 0.0 0.0 0.0 30.0" Properties=species:S:1:pos:R:3 pbc="T T T"
C        0.63614979      15.97583490      14.42251418
C        1.90844020      15.36810517      13.84663782
H        0.63614750      15.84468127      15.55341964
H        1.90844328      15.48447413      12.79686143
H        0.63614973      17.01744823      14.24999047
H        1.90844045      14.24581270      14.03835674
6
Lattice="2.5445879 0.0 0.0 -0.0 30.0 0.0 0.0 0.0 30.0" Properties=species:S:1:pos:R:3 pbc="T T T"
C        0.63614989      15.97410245      14.42430709
C        1.90844010      15.36640758      13.84844891
H        0.63614875      15.84663564      15.53509482
H        1.90844164      15.48647707      12.77823071
H        0.63614987      17.03613911      14.24695024
H        1.90844023      14.26403135      14.03540837
6
Lattice="2.5445879 0.0 0.0 -0.0 30.0 0.0 0.0 0.0 30.0" Properties=species:S:1:pos:R:3 pbc="T T T"
C        0.63615000      15.97237000      14.42610000
C        1.90844000      15.36471000      13.85026000
H        0.63615000      15.84859000      15.51677000
H        1.90844000      15.48848000      12.75960000
H        0.63615000      17.05483000      14.24391000
H        1.90844000      14.28225000      14.03246000
6
Lattice="2.5445879 0.0 0.0 -0.0 30.0 0.0 0.0 0.0 30.0" Properties=species:S:1:pos:R:3 pbc="T T T"
C        0.63615011      15.97063755      14.42789291
C        1.90843990      15.36301242      13.85207109
H        0.63615125      15.85054436      15.49844518
H        1.90843836      15.49048293      12.74096929
H        0.63615013      17.07352089      14.24086976
H        1.90843977      14.30046865      14.02951163
6
Lattice="2.5445879 0.0 0.0 -0.0 30.0 0.0 0.0 0.0 30.0" Properties=species:S:1:pos:R:3 pbc="T T T"
C        0.63615021      15.96890510      14.42968582
C        1.90843980      15.36131483      13.85388218
H        0.63615250      15.85249873      15.48012036
H        1.90843672      15.49248587      12.72233857
H        0.63615027      17.09221177      14.23782953
H        1.90843955      14.31868730      14.02656326
6
Lattice="2.5445879 0.0 0.0 -0.0 30.0 0.0 0.0 0.0 30.0" Properties=species:S:1:pos:R:3 pbc="T T T"
C        0.63615032      15.96717265      14.43147872
C        1.90843969      15.35961725      13.85569326
H        0.63615375      15.85445309      15.46179554
H        1.90843507      15.49448880      12.70370786
H        0.63615040      17.11090266      14.23478929
H        1.90843932      14.33690595      14.02361488
6
Lattice="2.5445879 0.0 0.0 -0.0 30.0 0.0 0.0 0.0 30.0" Properties=species:S:1:pos:R:3 pbc="T T T"
C        0.63615042      15.96544021      14.43327163
C        1.90843959      15.35791967      13.85750435
H        0.63615500      15.85640745      15.44347072
H        1.90843343      15.49649173      12.68507714
H        0.63615054      17.12959355      14.23174905
H        1.90843909      14.35512460      14.02066651
6
Lattice="2.5445879 0.0 0.0 -0.0 30.0 0.0 0.0 0.0 30.0" Properties=species:S:1:pos:R:3 pbc="T T T"
C        0.63615053      15.96370776      14.43506454
C        1.90843949      15.35622208      13.85931544
H        0.63615625      15.85836182      15.42514590
H        1.90843179      15.49849467      12.66644643
H        0.63615067      17.14828444      14.22870882
H        1.90843886      14.37334325      14.01771814
6
Lattice="2.5445879 0.0 0.0 -0.0 30.0 0.0 0.0 0.0 30.0" Properties=species:S:1:pos:R:3 pbc="T T T"
C        0.63615063      15.96197531      14.43685745
C        1.90843939      15.35452450      13.86112653
H        0.63615750      15.86031618      15.40682108
H        1.90843015      15.50049760      12.64781572
H        0.63615081      17.16697532      14.22566858
H        1.90843864      14.39156190      14.01476977
