6
Lattice="2.5445879 0.0 0.0 -0.0 30.0 0.0 0.0 0.0 30.0" Properties=species:S:1:pos:R:3 pbc="T T T"
C        0.86571931      18.24578946      13.20315944
C        2.13801895      17.79949001      12.45415148
H        0.86558416      17.81260512      14.25701878
H        2.13789875      18.22663259      11.39981976
H        0.86557977      19.37854184      13.32954935
H        2.13787712      16.66884509      12.33573053
6
Lattice="2.5445879 0.0 0.0 -0.0 30.0 0.0 0.0 0.0 30.0" Properties=species:S:1:pos:R:3 pbc="T T T"
C        0.83292369      17.92101525      13.37786523
C        2.10522196      17.45166429      12.65359555
H        0.83280785      17.53203153      14.43698324
H        2.10511893      17.83546794      11.59407408
H        0.83280409      19.04658301      13.46017230
H        2.10510039      16.32790294      12.57812045
6
Lattice="2.5445879 0.0 0.0 -0.0 30.0 0.0 0.0 0.0 30.0" Properties=species:S:1:pos:R:3 pbc="T T T"
C        0.80012808      17.59624104      13.55257103
C        2.07242497      17.10383858      12.85303963
H        0.80003154      17.25145794      14.61694770
H        2.07233911      17.44430328      11.78832840
H        0.80002841      18.71462417      13.59079525
H        2.07232366      15.98696078      12.82051038
6
Lattice="2.5445879 0.0 0.0 -0.0 30.0 0.0 0.0 0.0 30.0" Properties=species:S:1:pos:R:3 pbc="T T T"
C        0.76733246      17.27146683      13.72727682
C        2.03962797      16.75601286      13.05248370
H        0.76725523      16.97088435      14.79691216
H        2.03955928      17.05313862      11.98258272
H        0.76725273      18.38266534      13.72141820
H        2.03954693      15.64601863      13.06290030
6
Lattice="2.5445879 0.0 0.0 -0.0 30.0 0.0 0.0 0.0 30.0" Properties=species:S:1:pos:R:3 pbc="T T T"
C        0.73453685      16.94669263      13.90198262
C        2.00683098      16.40818715      13.25192778
H        0.73447893      16.69031077      14.97687662
H        2.00677946      16.66197397      12.17683704
H        0.73447704      18.05070650      13.85204115
H        2.00677019      15.30507647      13.30529023
6
Lattice="2.5445879 0.0 0.0 -0.0 30.0 0.0 0.0 0.0 30.0" Properties=species:S:1:pos:R:3 pbc="T T T"
C        0.70174123      16.62191842      14.07668841
C        1.97403399      16.06036143      13.45137185
H        0.70170262      16.40973718      15.15684108
H        1.97399964      16.27080931      12.37109136
H        0.70170136      17.71874767      13.98266410
H        1.97399346      14.96413431      13.54768015
6
Lattice="2.5445879 0.0 0.0 -0.0 30.0 0.0 0.0 0.0 30.0" Properties=species:S:1:pos:R:3 pbc="T T T"
C        0.66894562      16.29714421      14.25139421
C        1.94123699      15.71253572      13.65081593
H        0.66892631      16.12916359      15.33680554
H        1.94121982      15.87964466      12.56534568
H        0.66892568      17.38678883      14.11328705
H        1.94121673      14.62319216      13.79007008
6
Lattice="2.5445879 0.0 0.0 -0.0 30.0 0.0 0.0 0.0 30.0" Properties=species:S:1:pos:R:3 pbc="T T T"
C        0.63615000      15.97237000      14.42610000
C        1.90844000      15.36471000      13.85026000
H        0.63615000      15.84859000      15.51677000
H        1.90844000      15.48848000      12.75960000
H        0.63615000      17.05483000      14.24391000
H        1.90844000      14.28225000      14.03246000
6
Lattice="2.5445879 0.0 0.0 -0.0 30.0 0.0 0.0 0.0 30.0" Properties=species:S:1:pos:R:3 pbc="T T T"
C        0.60335438      15.64759579      14.60080579
C        1.87564301      15.01688428      14.04970407
H        0.60337369      15.56801641      15.69673446
H        1.87566018      15.09731534      12.95385432
H        0.60337432      16.72287117      14.37453295
H        1.87566327      13.94130784      14.27484992
6
Lattice="2.5445879 0.0 0.0 -0.0 30.0 0.0 0.0 0.0 30.0" Properties=species:S:1:pos:R:3 pbc="T T T"
C        0.57055877      15.32282158      14.77551159
C        1.84284601      14.66905857      14.24914815
H        0.57059738      15.28744282      15.87669892
H        1.84288036      14.70615069      13.14810864
H        0.57059864      16.39091233      14.50515590
H        1.84288654      13.60036569      14.51723985
6
Lattice="2.5445879 0.0 0.0 -0.0 30.0 0.0 0.0 0.0 30.0" Properties=species:S:1:pos:R:3 pbc="T T T"
C        0.53776315      14.99804737      14.95021738
C        1.81004902      14.32123285      14.44859222
H        0.53782107      15.00686923      16.05666338
H        1.81010054      14.31498603      13.34236296
H        0.53782296      16.05895350      14.63577885
H        1.81010981      13.25942353      14.75962977
6
Lattice="2.5445879 0.0 0.0 -0.0 30.0 0.0 0.0 0.0 30.0" Properties=species:S:1:pos:R:3 pbc="T T T"
C        0.50496754      14.67327317      15.12492318
C        1.77725203      13.97340714      14.64803630
H        0.50504477      14.72629565      16.23662784
H        1.77732072      13.92382138      13.53661728
H        0.50504727      15.72699466      14.76640180
H        1.77733307      12.91848137      15.00201970
6
Lattice="2.5445879 0.0 0.0 -0.0 30.0 0.0 0.0 0.0 30.0" Properties=species:S:1:pos:R:3 pbc="T T T"
C        0.47217192      14.34849896      15.29962897
C        1.74445503      13.62558142      14.84748037
H        0.47226846      14.44572206      16.41659230
H        1.74454089      13.53265672      13.73087160
H        0.47227159      15.39503583      14.89702475
H        1.74455634      12.57753922      15.24440962
6
Lattice="2.5445879 0.0 0.0 -0.0 30.0 0.0 0.0 0.0 30.0" Properties=species:S:1:pos:R:3 pbc="T T T"
C        0.43937631      14.02372475      15.47433477
C        1.71165804      13.27775571      15.04692445
H        0.43949215      14.16514847      16.59655676
H        1.71176107      13.14149206      13.92512592
H        0.43949591      15.06307699      15.02764770
H        1.71177961      12.23659706      15.48679955
6
Lattice="2.5445879 0.0 0.0 -0.0 30.0 0.0 0.0 0.0 30.0" Properties=species:S:1:pos:R:3 pbc="T T T"
C        0.40658069      13.69895054      15.64904056
C        1.67886105      12.92992999      15.24636852
H        0.40671584      13.88457488      16.77652122
H        1.67898125      12.75032741      14.11938024
H        0.40672023      14.73111816      15.15827065
H        1.67900288      11.89565491      15.72918947
6
Lattice="2.5445879 0.0 0.0 -0.0 30.0 0.0 0.0 0.0 30.0" Properties=species:S:1:pos:R:3 pbc="T T T"
C        0.43937631      14.02372475      15.47433477
C        1.71165804      13.27775571      15.04692445
H        0.43949215      14.16514847      16.59655676
H        1.71176107      13.14149206      13.92512592
H        0.43949591      15.06307699      15.02764770
H        1.71177961      12.23659706      15.48679955
6
Lattice="2.5445879 0.0 0.0 -0.0 30.0 0.0 0.0 0.0 30.0" Properties=species:S:1:pos:R:3 pbc="T T T"
C        0.47217192      14.34849896      15.29962897
C        1.74445503      13.62558142      14.84748037
H        0.47226846      14.44572206      16.41659230
H        1.74454089      13.53265672      13.73087160
H        0.47227159      15.39503583      14.89702475
H        1.74455634      12.57753922      15.24440962
6
Lattice="2.5445879 0.0 0.0 -0.0 30.0 0.0 0.0 0.0 30.0" Properties=species:S:1:pos:R:3 pbc="T T T"
C        0.50496754      14.67327317      15.12492318
C        1.77725203      13.97340714      14.64803630
H        0.50504477      14.72629565      16.23662784
H        1.77732072      13.92382138      13.53661728
H        0.50504727      15.72699466      14.76640180
H        1.77733307      12.91848137      15.00201970
6
Lattice="2.5445879 0.0 0.0 -0.0 30.0 0.0 0.0 0.0 30.0" Properties=species:S:1:pos:R:3 pbc="T T T"
C        0.53776315      14.99804737      14.95021738
C        1.81004902      14.32123285      14.44859222
H        0.53782107      15.00686923      16.05666338
H        1.81010054      14.31498603      13.34236296
H        0.53782296      16.05895350      14.63577885
H        1.81010981      13.25942353      14.75962977
6
Lattice="2.5445879 0.0 0.0 -0.0 30.0 0.0 0.0 0.0 30.0" Properties=species:S:1:pos:R:3 pbc="T T T"
C        0.57055877      15.32282158      14.77551159
C        1.84284601      14.66905857      14.24914815
H        0.57059738      15.28744282      15.87669892
H        1.84288036      14.70615069      13.14810864
H        0.57059864      16.39091233      14.50515590
H        1.84288654      13.60036569      14.51723985
6
Lattice="2.5445879 0.0 0.0 -0.0 30.0 0.0 0.0 0.0 30.0" Properties=species:S:1:pos:R:3 pbc="T T T"
C        0.60335438      15.64759579      14.60080579
C        1.87564301      15.01688428      14.04970407
H        0.60337369      15.56801641      15.69673446
H        1.87566018      15.09731534      12.95385432
H        0.60337432      16.72287117      14.37453295
H        1.87566327      13.94130784      14.27484992
6
Lattice="2.5445879 0.0 0.0 -0.0 30.0 0.0 0.0 0.0 30.0" Properties=species:S:1:pos:R:3 pbc="T T T"
C        0.63615000      15.97237000      14.42610000
C        1.90844000      15.36471000      13.85026000
H        0.63615000      15.84859000      15.51677000
H        1.90844000      15.48848000      12.75960000
H        0.63615000      17.05483000      14.24391000
H        1.90844000      14.28225000      14.03246000
6
Lattice="2.5445879 0.0 0.0 -0.0 30.0 0.0 0.0 0.0 30.0" Properties=species:S:1:pos:R:3 pbc="T T T"
C        0.66894562      16.29714421      14.25139421
C        1.94123699      15.71253572      13.65081593
H        0.66892631      16.12916359      15.33680554
H        1.94121982      15.87964466      12.56534568
H        0.66892568      17.38678883      14.11328705
H        1.94121673      14.62319216      13.79007008
6
Lattice="2.5445879 0.0 0.0 -0.0 30.0 0.0 0.0 0.0 30.0" Properties=species:S:1:pos:R:3 pbc="T T T"
C        0.70174123      16.62191842      14.07668841
C        1.97403399      16.06036143      13.45137185
H        0.70170262      16.40973718      15.15684108
H        1.97399964      16.27080931      12.37109136
H        0.70170136      17.71874767      13.98266410
H        1.97399346      14.96413431      13.54768015
6
Lattice="2.5445879 0.0 0.0 -0.0 30.0 0.0 0.0 0.0 30.0" Properties=species:S:1:pos:R:3 pbc="T T T"
C        0.73453685      16.94669263      13.90198262
C        2.00683098      16.40818715      13.25192778
H        0.73447893      16.69031077      14.97687662
H        2.00677946      16.66197397      12.17683704
H        0.73447704      18.05070650      13.85204115
H        2.00677019      15.30507647      13.30529023
6
Lattice="2.5445879 0.0 0.0 -0.0 30.0 0.0 0.0 0.0 30.0" Properties=species:S:1:pos:R:3 pbc="T T T"
C        0.76733246      17.27146683      13.72727682
C        2.03962797      16.75601286      13.05248370
H        0.76725523      16.97088435      14.79691216
H        2.03955928      17.05313862      11.98258272
H        0.76725273      18.38266534      13.72141820
H        2.03954693      15.64601863      13.06290030
6
Lattice="2.5445879 0.0 0.0 -0.0 30.0 0.0 0.0 0.0 30.0" Properties=species:S:1:pos:R:3 pbc="T T T"
C        0.80012808      17.59624104      13.55257103
C        2.07242497      17.10383858      12.85303963
H        0.80003154      17.25145794      14.61694770
H        2.07233911      17.44430328      11.78832840
H        0.80002841      18.71462417      13.59079525
H        2.07232366      15.98696078      12.82051038
6
Lattice="2.5445879 0.0 0.0 -0.0 30.0 0.0 0.0 0.0 30.0" Properties=species:S:1:pos:R:3 pbc="T T T"
C        0.83292369      17.92101525      13.37786523
C        2.10522196      17.45166429      12.65359555
H        0.83280785      17.53203153      14.43698324
H        2.10511893      17.83546794      11.59407408
H        0.83280409      19.04658301      13.46017230
H        2.10510039      16.32790294      12.57812045
