6
Lattice="2.5445879 0.0 0.0 -0.0 30.0 0.0 0.0 0.0 30.0" Properties=species:S:1:pos:R:3 pbc="T T T"
C        0.54152296      15.97230121      14.42604421
C        2.00303741      15.36477088      13.85032496
H        0.42927232      15.84857874      15.51681226
H        2.12200719      15.48859759      12.75954967
H        0.42262896      17.05485857      14.24378618
H        2.11555536      14.28221177      14.03248374
6
Lattice="2.5445879 0.0 0.0 -0.0 30.0 0.0 0.0 0.0 30.0" Properties=species:S:1:pos:R:3 pbc="T T T"
C        0.55504111      15.97231104      14.42605218
C        1.98952350      15.36476218      13.85031568
H        0.45882628      15.84858035      15.51680622
H        2.09149759      15.48858079      12.75955686
H        0.45313196      17.05485448      14.24380387
H        2.08596745      14.28221723      14.03248035
6
Lattice="2.5445879 0.0 0.0 -0.0 30.0 0.0 0.0 0.0 30.0" Properties=species:S:1:pos:R:3 pbc="T T T"
C        0.56855926      15.97232087      14.42606015
C        1.97600958      15.36475348      13.85030640
H        0.48838023      15.84858196      15.51680018
H        2.06098799      15.48856400      12.75956405
H        0.48363497      17.05485040      14.24382156
H        2.05637954      14.28222269      14.03247696
6
Lattice="2.5445879 0.0 0.0 -0.0 30.0 0.0 0.0 0.0 30.0" Properties=species:S:1:pos:R:3 pbc="T T T"
C        0.58207741      15.97233069      14.42606812
C        1.96249567      15.36474479      13.85029712
H        0.51793418      15.84858357      15.51679415
H        2.03047839      15.48854720      12.75957124
H        0.51413798      17.05484632      14.24383925
H        2.02679163      14.28222815      14.03247357
6
Lattice="2.5445879 0.0 0.0 -0.0 30.0 0.0 0.0 0.0 30.0" Properties=species:S:1:pos:R:3 pbc="T T T"
C        0.59559556      15.97234052      14.42607609
C        1.94898175      15.36473609      13.85028784
H        0.54748814      15.84858518      15.51678811
H        1.99996880      15.48853040      12.75957843
H        0.54464098      17.05484224      14.24385693
H        1.99720372      14.28223361      14.03247018
6
Lattice="2.5445879 0.0 0.0 -0.0 30.0 0.0 0.0 0.0 30.0" Properties=species:S:1:pos:R:3 pbc="T T T"
C        0.60911370      15.97235035      14.42608406
C        1.93546783      15.36472739      13.85027856
H        0.57704209      15.84858678      15.51678207
H        1.96945920      15.48851360      12.75958562
H        0.57514399      17.05483816      14.24387462
H        1.96761582      14.28223908      14.03246678
6
Lattice="2.5445879 0.0 0.0 -0.0 30.0 0.0 0.0 0.0 30.0" Properties=species:S:1:pos:R:3 pbc="T T T"
C        0.62263185      15.97236017      14.42609203
C        1.92195392      15.36471870      13.85026928
H        0.60659605      15.84858839      15.51677604
H        1.93894960      15.48849680      12.75959281
H        0.60564699      17.05483408      14.24389231
H        1.93802791      14.28224454      14.03246339
6
Lattice="2.5445879 0.0 0.0 -0.0 30.0 0.0 0.0 0.0 30.0" Properties=species:S:1:pos:R:3 pbc="T T T"
C        0.63615000      15.97237000      14.42610000
C        1.90844000      15.36471000      13.85026000
H        0.63615000      15.84859000      15.51677000
H        1.90844000      15.48848000      12.75960000
H        0.63615000      17.05483000      14.24391000
H        1.90844000      14.28225000      14.03246000
6
Lattice="2.5445879 0.0 0.0 -0.0 30.0 0.0 0.0 0.0 30.0" Properties=species:S:1:pos:R:3 pbc="T T T"
C        0.64966815      15.97237983      14.42610797
C        1.89492608      15.36470130      13.85025072
H        0.66570395      15.84859161      15.51676396
H        1.87793040      15.48846320      12.75960719
H        0.66665301      17.05482592      14.24392769
H        1.87885209      14.28225546      14.03245661
6
Lattice="2.5445879 0.0 0.0 -0.0 30.0 0.0 0.0 0.0 30.0" Properties=species:S:1:pos:R:3 pbc="T T T"
C        0.66318630      15.97238965      14.42611594
C        1.88141217      15.36469261      13.85024144
H        0.69525791      15.84859322      15.51675793
H        1.84742080      15.48844640      12.75961438
H        0.69715601      17.05482184      14.24394538
H        1.84926418      14.28226092      14.03245322
6
Lattice="2.5445879 0.0 0.0 -0.0 30.0 0.0 0.0 0.0 30.0" Properties=species:S:1:pos:R:3 pbc="T T T"
C        0.67670444      15.97239948      14.42612391
C        1.86789825      15.36468391      13.85023216
H        0.72481186      15.84859482      15.51675189
H        1.81691120      15.48842960      12.75962157
H        0.72765902      17.05481776      14.24396307
H        1.81967628      14.28226639      14.03244982
6
Lattice="2.5445879 0.0 0.0 -0.0 30.0 0.0 0.0 0.0 30.0" Properties=species:S:1:pos:R:3 pbc="T T T"
C        0.69022259      15.97240931      14.42613188
C        1.85438433      15.36467521      13.85022288
H        0.75436582      15.84859643      15.51674585
H        1.78640161      15.48841280      12.75962876
H        0.75816202      17.05481368      14.24398075
H        1.79008837      14.28227185      14.03244643
6
Lattice="2.5445879 0.0 0.0 -0.0 30.0 0.0 0.0 0.0 30.0" Properties=species:S:1:pos:R:3 pbc="T T T"
C        0.70374074      15.97241913      14.42613985
C        1.84087042      15.36466652      13.85021360
H        0.78391977      15.84859804      15.51673982
H        1.75589201      15.48839600      12.75963595
H        0.78866503      17.05480960      14.24399844
H        1.76050046      14.28227731      14.03244304
6
Lattice="2.5445879 0.0 0.0 -0.0 30.0 0.0 0.0 0.0 30.0" Properties=species:S:1:pos:R:3 pbc="T T T"
C        0.71725889      15.97242896      14.42614782
C        1.82735650      15.36465782      13.85020432
H        0.81347372      15.84859965      15.51673378
H        1.72538241      15.48837921      12.75964314
H        0.81916804      17.05480552      14.24401613
H        1.73091255      14.28228277      14.03243965
6
Lattice="2.5445879 0.0 0.0 -0.0 30.0 0.0 0.0 0.0 30.0" Properties=species:S:1:pos:R:3 pbc="T T T"
C        0.73077704      15.97243879      14.42615579
C        1.81384259      15.36464912      13.85019504
H        0.84302768      15.84860126      15.51672774
H        1.69487281      15.48836241      12.75965033
H        0.84967104      17.05480143      14.24403382
H        1.70132464      14.28228823      14.03243626
6
Lattice="2.5445879 0.0 0.0 -0.0 30.0 0.0 0.0 0.0 30.0" Properties=species:S:1:pos:R:3 pbc="T T T"
C        0.71725889      15.97242896      14.42614782
C        1.82735650      15.36465782      13.85020432
H        0.81347372      15.84859965      15.51673378
H        1.72538241      15.48837921      12.75964314
H        0.81916804      17.05480552      14.24401613
H        1.73091255      14.28228277      14.03243965
6
Lattice="2.5445879 0.0 0.0 -0.0 30.0 0.0 0.0 0.0 30.0" Properties=species:S:1:pos:R:3 pbc="T T T"
C        0.70374074      15.97241913      14.42613985
C        1.84087042      15.36466652      13.85021360
H        0.78391977      15.84859804      15.51673982
H        1.75589201      15.48839600      12.75963595
H        0.78866503      17.05480960      14.24399844
H        1.76050046      14.28227731      14.03244304
6
Lattice="2.5445879 0.0 0.0 -0.0 30.0 0.0 0.0 0.0 30.0" Properties=species:S:1:pos:R:3 pbc="T T T"
C        0.69022259      15.97240931      14.42613188
C        1.85438433      15.36467521      13.85022288
H        0.75436582      15.84859643      15.51674585
H        1.78640161      15.48841280      12.75962876
H        0.75816202      17.05481368      14.24398075
H        1.79008837      14.28227185      14.03244643
6
Lattice="2.5445879 0.0 0.0 -0.0 30.0 0.0 0.0 0.0 30.0" Properties=species:S:1:pos:R:3 pbc="T T T"
C        0.67670444      15.97239948      14.42612391
C        1.86789825      15.36468391      13.85023216
H        0.72481186      15.84859482      15.51675189
H        1.81691120      15.48842960      12.75962157
H        0.72765902      17.05481776      14.24396307
H        1.81967628      14.28226639      14.03244982
6
Lattice="2.5445879 0.0 0.0 -0.0 30.0 0.0 0.0 0.0 30.0" Properties=species:S:1:pos:R:3 pbc="T T T"
C        0.66318630      15.97238965      14.42611594
C        1.88141217      15.36469261      13.85024144
H        0.69525791      15.84859322      15.51675793
H        1.84742080      15.48844640      12.75961438
H        0.69715601      17.05482184      14.24394538
H        1.84926418      14.28226092      14.03245322
6
Lattice="2.5445879 0.0 0.0 -0.0 30.0 0.0 0.0 0.0 30.0" Properties=species:S:1:pos:R:3 pbc="T T T"
C        0.64966815      15.97237983      14.42610797
C        1.89492608      15.36470130      13.85025072
H        0.66570395      15.84859161      15.51676396
H        1.87793040      15.48846320      12.75960719
H        0.66665301      17.05482592      14.24392769
H        1.87885209      14.28225546      14.03245661
6
Lattice="2.5445879 0.0 0.0 -0.0 30.0 0.0 0.0 0.0 30.0" Properties=species:S:1:pos:R:3 pbc="T T T"
C        0.63615000      15.97237000      14.42610000
C        1.90844000      15.36471000      13.85026000
H        0.63615000      15.84859000      15.51677000
H        1.90844000      15.48848000      12.75960000
H        0.63615000      17.05483000      14.24391000
H        1.90844000      14.28225000      14.03246000
6
Lattice="2.5445879 0.0 0.0 -0.0 30.0 0.0 0.0 0.0 30.0" Properties=species:S:1:pos:R:3 pbc="T T T"
C        0.62263185      15.97236017      14.42609203
C        1.92195392      15.36471870      13.85026928
H        0.60659605      15.84858839      15.51677604
H        1.93894960      15.48849680      12.75959281
H        0.60564699      17.05483408      14.24389231
H        1.93802791      14.28224454      14.03246339
6
Lattice="2.5445879 0.0 0.0 -0.0 30.0 0.0 0.0 0.0 30.0" Properties=species:S:1:pos:R:3 pbc="T T T"
C        0.60911370      15.97235035      14.42608406
C        1.93546783      15.36472739      13.85027856
H        0.57704209      15.84858678      15.51678207
H        1.96945920      15.48851360      12.75958562
H        0.57514399      17.05483816      14.24387462
H        1.96761582      14.28223908      14.03246678
6
Lattice="2.5445879 0.0 0.0 -0.0 30.0 0.0 0.0 0.0 30.0" Properties=species:S:1:pos:R:3 pbc="T T T"
C        0.59559556      15.97234052      14.42607609
C        1.94898175      15.36473609      13.85028784
H        0.54748814      15.84858518      15.51678811
H        1.99996880      15.48853040      12.75957843
H        0.54464098      17.05484224      14.24385693
H        1.99720372      14.28223361      14.03247018
6
Lattice="2.5445879 0.0 0.0 -0.0 30.0 0.0 0.0 0.0 30.0" Properties=species:S:1:pos:R:3 pbc="T T T"
C        0.58207741      15.97233069      14.42606812
C        1.96249567      15.36474479      13.85029712
H        0.51793418      15.84858357      15.51679415
H        2.03047839      15.48854720      12.75957124
H        0.51413798      17.05484632      14.24383925
H        2.02679163      14.28222815      14.03247357
6
Lattice="2.5445879 0.0 0.0 -0.0 30.0 0.0 0.0 0.0 30.0" Properties=species:S:1:pos:R:3 pbc="T T T"
C        0.56855926      15.97232087      14.42606015
C        1.97600958      15.36475348      13.85030640
H        0.48838023      15.84858196      15.51680018
H        2.06098799      15.48856400      12.75956405
H        0.48363497      17.05485040      14.24382156
H        2.05637954      14.28222269      14.03247696
6
Lattice="2.5445879 0.0 0.0 -0.0 30.0 0.0 0.0 0.0 30.0" Properties=species:S:1:pos:R:3 pbc="T T T"
C        0.55504111      15.97231104      14.42605218
C        1.98952350      15.36476218      13.85031568
H        0.45882628      15.84858035      15.51680622
H        2.09149759      15.48858079      12.75955686
H        0.45313196      17.05485448      14.24380387
H        2.08596745      14.28221723      14.03248035
