6
Lattice="2.5445879 0.0 0.0 -0.0 30.0 0.0 0.0 0.0 30.0" Properties=species:S:1:pos:R:3 pbc="T T T"
C        0.63617144      15.95562129      14.44351645
C        1.90844257      15.34800404      13.86810561
H        0.63619922      16.10971329      15.56400795
H        1.90836232      15.74973623      12.80727885
H        0.63614271      16.99334713      13.98520710
H        1.90838575      14.22082298      13.77428036
6
Lattice="2.5445879 0.0 0.0 -0.0 30.0 0.0 0.0 0.0 30.0" Properties=species:S:1:pos:R:3 pbc="T T T"
C        0.63616837      15.95801396      14.44102839
C        1.90844221      15.35039061      13.86555624
H        0.63619219      16.07240996      15.55725967
H        1.90837342      15.71241391      12.80046759
H        0.63614375      17.00213040      14.02216465
H        1.90839350      14.22959826      13.81116317
6
Lattice="2.5445879 0.0 0.0 -0.0 30.0 0.0 0.0 0.0 30.0" Properties=species:S:1:pos:R:3 pbc="T T T"
C        0.63616531      15.96040664      14.43854032
C        1.90844184      15.35277717      13.86300686
H        0.63618516      16.03510663      15.55051139
H        1.90838452      15.67509159      12.79365632
H        0.63614479      17.01091366      14.05912221
H        1.90840125      14.23837355      13.84804597
6
Lattice="2.5445879 0.0 0.0 -0.0 30.0 0.0 0.0 0.0 30.0" Properties=species:S:1:pos:R:3 pbc="T T T"
C        0.63616225      15.96279931      14.43605226
C        1.90844147      15.35516374      13.86045749
H        0.63617813      15.99780331      15.54376311
H        1.90839561      15.63776928      12.78684506
H        0.63614583      17.01969693      14.09607977
H        1.90840900      14.24714884      13.88492878
6
Lattice="2.5445879 0.0 0.0 -0.0 30.0 0.0 0.0 0.0 30.0" Properties=species:S:1:pos:R:3 pbc="T T T"
C        0.63615919      15.96519198      14.43356419
C        1.90844110      15.35755030      13.85790812
H        0.63617109      15.96049998      15.53701484
H        1.90840671      15.60044696      12.78003379
H        0.63614687      17.02848020      14.13303733
H        1.90841675      14.25592413      13.92181158
6
Lattice="2.5445879 0.0 0.0 -0.0 30.0 0.0 0.0 0.0 30.0" Properties=species:S:1:pos:R:3 pbc="T T T"
C        0.63615612      15.96758465      14.43107613
C        1.90844074      15.35993687      13.85535875
H        0.63616406      15.92319665      15.53026656
H        1.90841781      15.56312464      12.77322253
H        0.63614792      17.03726347      14.16999488
H        1.90842450      14.26469942      13.95869439
6
Lattice="2.5445879 0.0 0.0 -0.0 30.0 0.0 0.0 0.0 30.0" Properties=species:S:1:pos:R:3 pbc="T T T"
C        0.63615306      15.96997733      14.42858806
C        1.90844037      15.36232343      13.85280937
H        0.63615703      15.88589333      15.52351828
H        1.90842890      15.52580232      12.76641126
H        0.63614896      17.04604673      14.20695244
H        1.90843225      14.27347471      13.99557719
6
Lattice="2.5445879 0.0 0.0 -0.0 30.0 0.0 0.0 0.0 30.0" Properties=species:S:1:pos:R:3 pbc="T T T"
C        0.63615000      15.97237000      14.42610000
C        1.90844000      15.36471000      13.85026000
H        0.63615000      15.84859000      15.51677000
H        1.90844000      15.48848000      12.75960000
H        0.63615000      17.05483000      14.24391000
H        1.90844000      14.28225000      14.03246000
6
Lattice="2.5445879 0.0 0.0 -0.0 30.0 0.0 0.0 0.0 30.0" Properties=species:S:1:pos:R:3 pbc="T T T"
C        0.63614694      15.97476267      14.42361194
C        1.90843963      15.36709657      13.84771063
H        0.63614297      15.81128667      15.51002172
H        1.90845110      15.45115768      12.75278874
H        0.63615104      17.06361327      14.28086756
H        1.90844775      14.29102529      14.06934281
6
Lattice="2.5445879 0.0 0.0 -0.0 30.0 0.0 0.0 0.0 30.0" Properties=species:S:1:pos:R:3 pbc="T T T"
C        0.63614388      15.97715535      14.42112387
C        1.90843926      15.36948313      13.84516125
H        0.63613594      15.77398335      15.50327344
H        1.90846219      15.41383536      12.74597747
H        0.63615208      17.07239653      14.31782512
H        1.90845550      14.29980058      14.10622561
6
Lattice="2.5445879 0.0 0.0 -0.0 30.0 0.0 0.0 0.0 30.0" Properties=species:S:1:pos:R:3 pbc="T T T"
C        0.63614081      15.97954802      14.41863581
C        1.90843890      15.37186970      13.84261188
H        0.63612891      15.73668002      15.49652516
H        1.90847329      15.37651304      12.73916621
H        0.63615313      17.08117980      14.35478267
H        1.90846325      14.30857587      14.14310842
6
Lattice="2.5445879 0.0 0.0 -0.0 30.0 0.0 0.0 0.0 30.0" Properties=species:S:1:pos:R:3 pbc="T T T"
C        0.63613775      15.98194069      14.41614774
C        1.90843853      15.37425626      13.84006251
H        0.63612187      15.69937669      15.48977689
H        1.90848439      15.33919072      12.73235494
H        0.63615417      17.08996307      14.39174023
H        1.90847100      14.31735116      14.17999122
6
Lattice="2.5445879 0.0 0.0 -0.0 30.0 0.0 0.0 0.0 30.0" Properties=species:S:1:pos:R:3 pbc="T T T"
C        0.63613469      15.98433336      14.41365968
C        1.90843816      15.37664283      13.83751314
H        0.63611484      15.66207337      15.48302861
H        1.90849548      15.30186841      12.72554368
H        0.63615521      17.09874634      14.42869779
H        1.90847875      14.32612645      14.21687403
6
Lattice="2.5445879 0.0 0.0 -0.0 30.0 0.0 0.0 0.0 30.0" Properties=species:S:1:pos:R:3 pbc="T T T"
C        0.63613163      15.98672604      14.41117161
C        1.90843779      15.37902939      13.83496376
H        0.63610781      15.62477004      15.47628033
H        1.90850658      15.26454609      12.71873241
H        0.63615625      17.10752960      14.46565535
H        1.90848650      14.33490174      14.25375683
6
Lattice="2.5445879 0.0 0.0 -0.0 30.0 0.0 0.0 0.0 30.0" Properties=species:S:1:pos:R:3 pbc="T T T"
C        0.63612856      15.98911871      14.40868355
C        1.90843743      15.38141596      13.83241439
H        0.63610078      15.58746671      15.46953205
H        1.90851768      15.22722377      12.71192115
H        0.63615729      17.11631287      14.50261290
H        1.90849425      14.34367702      14.29063964
6
Lattice="2.5445879 0.0 0.0 -0.0 30.0 0.0 0.0 0.0 30.0" Properties=species:S:1:pos:R:3 pbc="T T T"
C        0.63613163      15.98672604      14.41117161
C        1.90843779      15.37902939      13.83496376
H        0.63610781      15.62477004      15.47628033
H        1.90850658      15.26454609      12.71873241
H        0.63615625      17.10752960      14.46565535
H        1.90848650      14.33490174      14.25375683
6
Lattice="2.5445879 0.0 0.0 -0.0 30.0 0.0 0.0 0.0 30.0" Properties=species:S:1:pos:R:3 pbc="T T T"
C        0.63613469      15.98433336      14.41365968
C        1.90843816      15.37664283      13.83751314
H        0.63611484      15.66207337      15.48302861
H        1.90849548      15.30186841      12.72554368
H        0.63615521      17.09874634      14.42869779
H        1.90847875      14.32612645      14.21687403
6
Lattice="2.5445879 0.0 0.0 -0.0 30.0 0.0 0.0 0.0 30.0" Properties=species:S:1:pos:R:3 pbc="T T T"
C        0.63613775      15.98194069      14.41614774
C        1.90843853      15.37425626      13.84006251
H        0.63612187      15.69937669      15.48977689
H        1.90848439      15.33919072      12.73235494
H        0.63615417      17.08996307      14.39174023
H        1.90847100      14.31735116      14.17999122
6
Lattice="2.5445879 0.0 0.0 -0.0 30.0 0.0 0.0 0.0 30.0" Properties=species:S:1:pos:R:3 pbc="T T T"
C        0.63614081      15.97954802      14.41863581
C        1.90843890      15.37186970      13.84261188
H        0.63612891      15.73668002      15.49652516
H        1.90847329      15.37651304      12.73916621
H        0.63615313      17.08117980      14.35478267
H        1.90846325      14.30857587      14.14310842
6
Lattice="2.5445879 0.0 0.0 -0.0 30.0 0.0 0.0 0.0 30.0" Properties=species:S:1:pos:R:3 pbc="T T T"
C        0.63614388      15.97715535      14.42112387
C        1.90843926      15.36948313      13.84516125
H        0.63613594      15.77398335      15.50327344
H        1.90846219      15.41383536      12.74597747
H        0.63615208      17.07239653      14.31782512
H        1.90845550      14.29980058      14.10622561
6
Lattice="2.5445879 0.0 0.0 -0.0 30.0 0.0 0.0 0.0 30.0" Properties=species:S:1:pos:R:3 pbc="T T T"
C        0.63614694      15.97476267      14.42361194
C        1.90843963      15.36709657      13.84771063
H        0.63614297      15.81128667      15.51002172
H        1.90845110      15.45115768      12.75278874
H        0.63615104      17.06361327      14.28086756
H        1.90844775      14.29102529      14.06934281
6
Lattice="2.5445879 0.0 0.0 -0.0 30.0 0.0 0.0 0.0 30.0" Properties=species:S:1:pos:R:3 pbc="T T T"
C        0.63615000      15.97237000      14.42610000
C        1.90844000      15.36471000      13.85026000
H        0.63615000      15.84859000      15.51677000
H        1.90844000      15.48848000      12.75960000
H        0.63615000      17.05483000      14.24391000
H        1.90844000      14.28225000      14.03246000
6
Lattice="2.5445879 0.0 0.0 -0.0 30.0 0.0 0.0 0.0 30.0" Properties=species:S:1:pos:R:3 pbc="T T T"
C        0.63615306      15.96997733      14.42858806
C        1.90844037      15.36232343      13.85280937
H        0.63615703      15.88589333      15.52351828
H        1.90842890      15.52580232      12.76641126
H        0.63614896      17.04604673      14.20695244
H        1.90843225      14.27347471      13.99557719
6
Lattice="2.5445879 0.0 0.0 -0.0 30.0 0.0 0.0 0.0 30.0" Properties=species:S:1:pos:R:3 pbc="T T T"
C        0.63615612      15.96758465      14.43107613
C        1.90844074      15.35993687      13.85535875
H        0.63616406      15.92319665      15.53026656
H        1.90841781      15.56312464      12.77322253
H        0.63614792      17.03726347      14.16999488
H        1.90842450      14.26469942      13.95869439
6
Lattice="2.5445879 0.0 0.0 -0.0 30.0 0.0 0.0 0.0 30.0" Properties=species:S:1:pos:R:3 pbc="T T T"
C        0.63615919      15.96519198      14.43356419
C        1.90844110      15.35755030      13.85790812
H        0.63617109      15.96049998      15.53701484
H        1.90840671      15.60044696      12.78003379
H        0.63614687      17.02848020      14.13303733
H        1.90841675      14.25592413      13.92181158
6
Lattice="2.5445879 0.0 0.0 -0.0 30.0 0.0 0.0 0.0 30.0" Properties=species:S:1:pos:R:3 pbc="T T T"
C        0.63616225      15.96279931      14.43605226
C        1.90844147      15.35516374      13.86045749
H        0.63617813      15.99780331      15.54376311
H        1.90839561      15.63776928      12.78684506
H        0.63614583      17.01969693      14.09607977
H        1.90840900      14.24714884      13.88492878
6
Lattice="2.5445879 0.0 0.0 -0.0 30.0 0.0 0.0 0.0 30.0" Properties=species:S:1:pos:R:3 pbc="T T T"
C        0.63616531      15.96040664      14.43854032
C        1.90844184      15.35277717      13.86300686
H        0.63618516      16.03510663      15.55051139
H        1.90838452      15.67509159      12.79365632
H        0.63614479      17.01091366      14.05912221
H        1.90840125      14.23837355      13.84804597
6
Lattice="2.5445879 0.0 0.0 -0.0 30.0 0.0 0.0 0.0 30.0" Properties=species:S:1:pos:R:3 pbc="T T T"
C        0.63616837      15.95801396      14.44102839
C        1.90844221      15.35039061      13.86555624
H        0.63619219      16.07240996      15.55725967
H        1.90837342      15.71241391      12.80046759
H        0.63614375      17.00213040      14.02216465
H        1.90839350      14.22959826      13.81116317
