6
Lattice="2.5445879 0.0 0.0 -0.0 30.0 0.0 0.0 0.0 30.0" Properties=species:S:1:pos:R:3 pbc="T T T"
C       -3.97438352      15.10149073      12.06589913
C       -2.70223392      14.50257510      11.48015167
H       -3.97145349      14.95889521      13.15628791
H       -2.69909479      14.64228765      10.38953632
H       -3.97139805      16.18941311      11.90425062
H       -2.69993028      13.41542482      11.64867255
6
Lattice="2.5445879 0.0 0.0 -0.0 30.0 0.0 0.0 0.0 30.0" Properties=species:S:1:pos:R:3 pbc="T T T"
C       -3.31573587      15.22590206      12.40307069
C       -2.04356622      14.62573723      11.81873857
H       -3.31322442      15.08599447      13.49349964
H       -2.04087554      14.76317227      10.72811684
H       -3.31317690      16.31304409      12.23848768
H       -2.04159167      13.53925699      11.98921361
6
Lattice="2.5445879 0.0 0.0 -0.0 30.0 0.0 0.0 0.0 30.0" Properties=species:S:1:pos:R:3 pbc="T T T"
C       -2.65708823      15.35031338      12.74024224
C       -1.38489851      14.74889936      12.15732548
H       -2.65499535      15.21309372      13.83071136
H       -1.38265628      14.88405689      11.06669737
H       -2.65495575      16.43667508      12.57272473
H       -1.38325306      13.66308916      12.32975468
6
Lattice="2.5445879 0.0 0.0 -0.0 30.0 0.0 0.0 0.0 30.0" Properties=species:S:1:pos:R:3 pbc="T T T"
C       -1.99844058      15.47472470      13.07741379
C       -0.72623081      14.87206149      12.49591238
H       -1.99676628      15.34019298      14.16792309
H       -0.72443702      15.00494151      11.40527790
H       -1.99673460      16.56030606      12.90696178
H       -0.72491445      13.78692133      12.67029574
6
Lattice="2.5445879 0.0 0.0 -0.0 30.0 0.0 0.0 0.0 30.0" Properties=species:S:1:pos:R:3 pbc="T T T"
C       -1.33979294      15.59913603      13.41458534
C       -0.06756311      14.99522362      12.83449929
H       -1.33853721      15.46729223      14.50513482
H       -0.06621777      15.12582613      11.74385842
H       -1.33851345      16.68393705      13.24119884
H       -0.06657584      13.91075350      13.01083681
6
Lattice="2.5445879 0.0 0.0 -0.0 30.0 0.0 0.0 0.0 30.0" Properties=species:S:1:pos:R:3 pbc="T T T"
C       -0.68114529      15.72354735      13.75175690
C        0.59110459      15.11838574      13.17308619
H       -0.68030814      15.59439149      14.84234655
H        0.59200149      15.24671076      12.08243895
H       -0.68029230      16.80756803      13.57543589
H        0.59176278      14.03458566      13.35137787
6
Lattice="2.5445879 0.0 0.0 -0.0 30.0 0.0 0.0 0.0 30.0" Properties=species:S:1:pos:R:3 pbc="T T T"
C       -0.02249765      15.84795868      14.08892845
C        1.24977230      15.24154787      13.51167310
H       -0.02207907      15.72149074      15.17955827
H        1.25022074      15.36759538      12.42101947
H       -0.02207115      16.93119902      13.90967295
H        1.25010139      14.15841783      13.69191894
6
Lattice="2.5445879 0.0 0.0 -0.0 30.0 0.0 0.0 0.0 30.0" Properties=species:S:1:pos:R:3 pbc="T T T"
C        0.63615000      15.97237000      14.42610000
C        1.90844000      15.36471000      13.85026000
H        0.63615000      15.84859000      15.51677000
H        1.90844000      15.48848000      12.75960000
H        0.63615000      17.05483000      14.24391000
H        1.90844000      14.28225000      14.03246000
6
Lattice="2.5445879 0.0 0.0 -0.0 30.0 0.0 0.0 0.0 30.0" Properties=species:S:1:pos:R:3 pbc="T T T"
C        1.29479765      16.09678132      14.76327155
C        2.56710770      15.48787213      14.18884690
H        1.29437907      15.97568926      15.85398173
H        2.56665926      15.60936462      13.09818053
H        1.29437115      17.17846098      14.57814705
H        2.56677861      14.40608217      14.37300106
6
Lattice="2.5445879 0.0 0.0 -0.0 30.0 0.0 0.0 0.0 30.0" Properties=species:S:1:pos:R:3 pbc="T T T"
C        1.95344529      16.22119265      15.10044310
C        3.22577541      15.61103426      14.52743381
H        1.95260814      16.10278851      16.19119345
H        3.22487851      15.73024924      13.43676105
H        1.95259230      17.30209197      14.91238411
H        3.22511722      14.52991434      14.71354213
6
Lattice="2.5445879 0.0 0.0 -0.0 30.0 0.0 0.0 0.0 30.0" Properties=species:S:1:pos:R:3 pbc="T T T"
C        2.61209294      16.34560397      15.43761466
C        3.88444311      15.73419638      14.86602071
H        2.61083721      16.22988777      16.52840518
H        3.88309777      15.85113387      13.77534158
H        2.61081345      17.42572295      15.24662116
H        3.88345584      14.65374650      15.05408319
6
Lattice="2.5445879 0.0 0.0 -0.0 30.0 0.0 0.0 0.0 30.0" Properties=species:S:1:pos:R:3 pbc="T T T"
C        3.27074058      16.47001530      15.77478621
C        4.54311081      15.85735851      15.20460762
H        3.26906628      16.35698702      16.86561691
H        4.54131702      15.97201849      14.11392210
H        3.26903460      17.54935394      15.58085822
H        4.54179445      14.77757867      15.39462426
6
Lattice="2.5445879 0.0 0.0 -0.0 30.0 0.0 0.0 0.0 30.0" Properties=species:S:1:pos:R:3 pbc="T T T"
C        3.92938823      16.59442662      16.11195776
C        5.20177851      15.98052064      15.54319452
H        3.92729535      16.48408628      17.20282864
H        5.19953628      16.09290311      14.45250263
H        3.92725575      17.67298492      15.91509527
H        5.20013306      14.90141084      15.73516532
6
Lattice="2.5445879 0.0 0.0 -0.0 30.0 0.0 0.0 0.0 30.0" Properties=species:S:1:pos:R:3 pbc="T T T"
C        4.58803587      16.71883794      16.44912931
C        5.86044622      16.10368277      15.88178143
H        4.58552442      16.61118553      17.54004036
H        5.85775554      16.21378773      14.79108316
H        4.58547690      17.79661591      16.24933232
H        5.85847167      15.02524301      16.07570639
6
Lattice="2.5445879 0.0 0.0 -0.0 30.0 0.0 0.0 0.0 30.0" Properties=species:S:1:pos:R:3 pbc="T T T"
C        5.24668352      16.84324927      16.78630087
C        6.51911392      16.22684490      16.22036833
H        5.24375349      16.73828479      17.87725209
H        6.51597479      16.33467235      15.12966368
H        5.24369805      17.92024689      16.58356938
H        6.51681028      15.14907518      16.41624745
6
Lattice="2.5445879 0.0 0.0 -0.0 30.0 0.0 0.0 0.0 30.0" Properties=species:S:1:pos:R:3 pbc="T T T"
C        4.58803587      16.71883794      16.44912931
C        5.86044622      16.10368277      15.88178143
H        4.58552442      16.61118553      17.54004036
H        5.85775554      16.21378773      14.79108316
H        4.58547690      17.79661591      16.24933232
H        5.85847167      15.02524301      16.07570639
6
Lattice="2.5445879 0.0 0.0 -0.0 30.0 0.0 0.0 0.0 30.0" Properties=species:S:1:pos:R:3 pbc="T T T"
C        3.92938823      16.59442662      16.11195776
C        5.20177851      15.98052064      15.54319452
H        3.92729535      16.48408628      17.20282864
H        5.19953628      16.09290311      14.45250263
H        3.92725575      17.67298492      15.91509527
H        5.20013306      14.90141084      15.73516532
6
Lattice="2.5445879 0.0 0.0 -0.0 30.0 0.0 0.0 0.0 30.0" Properties=species:S:1:pos:R:3 pbc="T T T"
C        3.27074058      16.47001530      15.77478621
C        4.54311081      15.85735851      15.20460762
H        3.26906628      16.35698702      16.86561691
H        4.54131702      15.97201849      14.11392210
H        3.26903460      17.54935394      15.58085822
H        4.54179445      14.77757867      15.39462426
6
Lattice="2.5445879 0.0 0.0 -0.0 30.0 0.0 0.0 0.0 30.0" Properties=species:S:1:pos:R:3 pbc="T T T"
C        2.61209294      16.34560397      15.43761466
C        3.88444311      15.73419638      14.86602071
H        2.61083721      16.22988777      16.52840518
H        3.88309777      15.85113387      13.77534158
H        2.61081345      17.42572295      15.24662116
H        3.88345584      14.65374650      15.05408319
6
Lattice="2.5445879 0.0 0.0 -0.0 30.0 0.0 0.0 0.0 30.0" Properties=species:S:1:pos:R:3 pbc="T T T"
C        1.95344529      16.22119265      15.10044310
C        3.22577541      15.61103426      14.52743381
H        1.95260814      16.10278851      16.19119345
H        3.22487851      15.73024924      13.43676105
H        1.95259230      17.30209197      14.91238411
H        3.22511722      14.52991434      14.71354213
6
Lattice="2.5445879 0.0 0.0 -0.0 30.0 0.0 0.0 0.0 30.0" Properties=species:S:1:pos:R:3 pbc="T T T"
C        1.29479765      16.09678132      14.76327155
C        2.56710770      15.48787213      14.18884690
H        1.29437907      15.97568926      15.85398173
H        2.56665926      15.60936462      13.09818053
H        1.29437115      17.17846098      14.57814705
H        2.56677861      14.40608217      14.37300106
6
Lattice="2.5445879 0.0 0.0 -0.0 30.0 0.0 0.0 0.0 30.0" Properties=species:S:1:pos:R:3 pbc="T T T"
C        0.63615000      15.97237000      14.42610000
C        1.90844000      15.36471000      13.85026000
H        0.63615000      15.84859000      15.51677000
H        1.90844000      15.48848000      12.75960000
H        0.63615000      17.05483000      14.24391000
H        1.90844000      14.28225000      14.03246000
6
Lattice="2.5445879 0.0 0.0 -0.0 30.0 0.0 0.0 0.0 30.0" Properties=species:S:1:pos:R:3 pbc="T T T"
C       -0.02249765      15.84795868      14.08892845
C        1.24977230      15.24154787      13.51167310
H       -0.02207907      15.72149074      15.17955827
H        1.25022074      15.36759538      12.42101947
H       -0.02207115      16.93119902      13.90967295
H        1.25010139      14.15841783      13.69191894
6
Lattice="2.5445879 0.0 0.0 -0.0 30.0 0.0 0.0 0.0 30.0" Properties=species:S:1:pos:R:3 pbc="T T T"
C       -0.68114529      15.72354735      13.75175690
C        0.59110459      15.11838574      13.17308619
H       -0.68030814      15.59439149      14.84234655
H        0.59200149      15.24671076      12.08243895
H       -0.68029230      16.80756803      13.57543589
H        0.59176278      14.03458566      13.35137787
6
Lattice="2.5445879 0.0 0.0 -0.0 30.0 0.0 0.0 0.0 30.0" Properties=species:S:1:pos:R:3 pbc="T T T"
C       -1.33979294      15.59913603      13.41458534
C       -0.06756311      14.99522362      12.83449929
H       -1.33853721      15.46729223      14.50513482
H       -0.06621777      15.12582613      11.74385842
H       -1.33851345      16.68393705      13.24119884
H       -0.06657584      13.91075350      13.01083681
6
Lattice="2.5445879 0.0 0.0 -0.0 30.0 0.0 0.0 0.0 30.0" Properties=species:S:1:pos:R:3 pbc="T T T"
C       -1.99844058      15.47472470      13.07741379
C       -0.72623081      14.87206149      12.49591238
H       -1.99676628      15.34019298      14.16792309
H       -0.72443702      15.00494151      11.40527790
H       -1.99673460      16.56030606      12.90696178
H       -0.72491445      13.78692133      12.67029574
6
Lattice="2.5445879 0.0 0.0 -0.0 30.0 0.0 0.0 0.0 30.0" Properties=species:S:1:pos:R:3 pbc="T T T"
C       -2.65708823      15.35031338      12.74024224
C       -1.38489851      14.74889936      12.15732548
H       -2.65499535      15.21309372      13.83071136
H       -1.38265628      14.88405689      11.06669737
H       -2.65495575      16.43667508      12.57272473
H       -1.38325306      13.66308916      12.32975468
6
Lattice="2.5445879 0.0 0.0 -0.0 30.0 0.0 0.0 0.0 30.0" Properties=species:S:1:pos:R:3 pbc="T T T"
C       -3.31573587      15.22590206      12.40307069
C       -2.04356622      14.62573723      11.81873857
H       -3.31322442      15.08599447      13.49349964
H       -2.04087554      14.76317227      10.72811684
H       -3.31317690      16.31304409      12.23848768
H       -2.04159167      13.53925699      11.98921361
