6
Lattice="2.5445879 0.0 0.0 -0.0 30.0 0.0 0.0 0.0 30.0" Properties=species:S:1:pos:R:3 pbc="T T T"
C        0.60128646      15.97232416      14.42640041
C        1.87350160      15.36474971      13.84996165
H        0.84434107      15.84919541      15.51705824
H        2.11654648      15.48795169      12.75931635
H        0.84405534      17.05460942      14.24351514
H        2.11648817      14.28246138      14.03282538
6
Lattice="2.5445879 0.0 0.0 -0.0 30.0 0.0 0.0 0.0 30.0" Properties=species:S:1:pos:R:3 pbc="T T T"
C        0.60626696      15.97233071      14.42635750
C        1.87849280      15.36474403      13.85000427
H        0.81459949      15.84910892      15.51701706
H        2.08681698      15.48802716      12.75935687
H        0.81435458      17.05464093      14.24357155
H        2.08676700      14.28243118      14.03277318
6
Lattice="2.5445879 0.0 0.0 -0.0 30.0 0.0 0.0 0.0 30.0" Properties=species:S:1:pos:R:3 pbc="T T T"
C        0.61124747      15.97233726      14.42631458
C        1.88348400      15.36473836      13.85004689
H        0.78485791      15.84902243      15.51697588
H        2.05708748      15.48810264      12.75939739
H        0.78465382      17.05467244      14.24362796
H        2.05704583      14.28240099      14.03272099
6
Lattice="2.5445879 0.0 0.0 -0.0 30.0 0.0 0.0 0.0 30.0" Properties=species:S:1:pos:R:3 pbc="T T T"
C        0.61622798      15.97234380      14.42627167
C        1.88847520      15.36473269      13.85008951
H        0.75511632      15.84893595      15.51693471
H        2.02735799      15.48817811      12.75943791
H        0.75495305      17.05470396      14.24368437
H        2.02732467      14.28237079      14.03266879
6
Lattice="2.5445879 0.0 0.0 -0.0 30.0 0.0 0.0 0.0 30.0" Properties=species:S:1:pos:R:3 pbc="T T T"
C        0.62120848      15.97235035      14.42622875
C        1.89346640      15.36472702      13.85013214
H        0.72537474      15.84884946      15.51689353
H        1.99762849      15.48825358      12.75947844
H        0.72525229      17.05473547      14.24374078
H        1.99760350      14.28234059      14.03261659
6
Lattice="2.5445879 0.0 0.0 -0.0 30.0 0.0 0.0 0.0 30.0" Properties=species:S:1:pos:R:3 pbc="T T T"
C        0.62618899      15.97235690      14.42618583
C        1.89845760      15.36472134      13.85017476
H        0.69563316      15.84876297      15.51685235
H        1.96789899      15.48832905      12.75951896
H        0.69555153      17.05476698      14.24379718
H        1.96788233      14.28231039      14.03256439
6
Lattice="2.5445879 0.0 0.0 -0.0 30.0 0.0 0.0 0.0 30.0" Properties=species:S:1:pos:R:3 pbc="T T T"
C        0.63116949      15.97236345      14.42614292
C        1.90344880      15.36471567      13.85021738
H        0.66589158      15.84867649      15.51681118
H        1.93816950      15.48840453      12.75955948
H        0.66585076      17.05479849      14.24385359
H        1.93816117      14.28228020      14.03251220
6
Lattice="2.5445879 0.0 0.0 -0.0 30.0 0.0 0.0 0.0 30.0" Properties=species:S:1:pos:R:3 pbc="T T T"
C        0.63615000      15.97237000      14.42610000
C        1.90844000      15.36471000      13.85026000
H        0.63615000      15.84859000      15.51677000
H        1.90844000      15.48848000      12.75960000
H        0.63615000      17.05483000      14.24391000
H        1.90844000      14.28225000      14.03246000
6
Lattice="2.5445879 0.0 0.0 -0.0 30.0 0.0 0.0 0.0 30.0" Properties=species:S:1:pos:R:3 pbc="T T T"
C        0.64113051      15.97237655      14.42605708
C        1.91343120      15.36470433      13.85030262
H        0.60640842      15.84850351      15.51672882
H        1.87871050      15.48855547      12.75964052
H        0.60644924      17.05486151      14.24396641
H        1.87871883      14.28221980      14.03240780
6
Lattice="2.5445879 0.0 0.0 -0.0 30.0 0.0 0.0 0.0 30.0" Properties=species:S:1:pos:R:3 pbc="T T T"
C        0.64611101      15.97238310      14.42601417
C        1.91842240      15.36469866      13.85034524
H        0.57666684      15.84841703      15.51668765
H        1.84898101      15.48863095      12.75968104
H        0.57674847      17.05489302      14.24402282
H        1.84899767      14.28218961      14.03235561
6
Lattice="2.5445879 0.0 0.0 -0.0 30.0 0.0 0.0 0.0 30.0" Properties=species:S:1:pos:R:3 pbc="T T T"
C        0.65109152      15.97238965      14.42597125
C        1.92341360      15.36469298      13.85038786
H        0.54692526      15.84833054      15.51664647
H        1.81925151      15.48870642      12.75972156
H        0.54704771      17.05492453      14.24407922
H        1.81927650      14.28215941      14.03230341
6
Lattice="2.5445879 0.0 0.0 -0.0 30.0 0.0 0.0 0.0 30.0" Properties=species:S:1:pos:R:3 pbc="T T T"
C        0.65607202      15.97239620      14.42592833
C        1.92840480      15.36468731      13.85043049
H        0.51718368      15.84824405      15.51660529
H        1.78952201      15.48878189      12.75976209
H        0.51734695      17.05495604      14.24413563
H        1.78955533      14.28212921      14.03225121
6
Lattice="2.5445879 0.0 0.0 -0.0 30.0 0.0 0.0 0.0 30.0" Properties=species:S:1:pos:R:3 pbc="T T T"
C        0.66105253      15.97240274      14.42588542
C        1.93339600      15.36468164      13.85047311
H        0.48744209      15.84815757      15.51656412
H        1.75979252      15.48885736      12.75980261
H        0.48764618      17.05498756      14.24419204
H        1.75983417      14.28209901      14.03219901
6
Lattice="2.5445879 0.0 0.0 -0.0 30.0 0.0 0.0 0.0 30.0" Properties=species:S:1:pos:R:3 pbc="T T T"
C        0.66603304      15.97240929      14.42584250
C        1.93838720      15.36467597      13.85051573
H        0.45770051      15.84807108      15.51652294
H        1.73006302      15.48893284      12.75984313
H        0.45794542      17.05501907      14.24424845
H        1.73011300      14.28206882      14.03214682
6
Lattice="2.5445879 0.0 0.0 -0.0 30.0 0.0 0.0 0.0 30.0" Properties=species:S:1:pos:R:3 pbc="T T T"
C        0.67101354      15.97241584      14.42579959
C        1.94337840      15.36467029      13.85055835
H        0.42795893      15.84798459      15.51648176
H        1.70033352      15.48900831      12.75988365
H        0.42824466      17.05505058      14.24430486
H        1.70039183      14.28203862      14.03209462
6
Lattice="2.5445879 0.0 0.0 -0.0 30.0 0.0 0.0 0.0 30.0" Properties=species:S:1:pos:R:3 pbc="T T T"
C        0.66603304      15.97240929      14.42584250
C        1.93838720      15.36467597      13.85051573
H        0.45770051      15.84807108      15.51652294
H        1.73006302      15.48893284      12.75984313
H        0.45794542      17.05501907      14.24424845
H        1.73011300      14.28206882      14.03214682
6
Lattice="2.5445879 0.0 0.0 -0.0 30.0 0.0 0.0 0.0 30.0" Properties=species:S:1:pos:R:3 pbc="T T T"
C        0.66105253      15.97240274      14.42588542
C        1.93339600      15.36468164      13.85047311
H        0.48744209      15.84815757      15.51656412
H        1.75979252      15.48885736      12.75980261
H        0.48764618      17.05498756      14.24419204
H        1.75983417      14.28209901      14.03219901
6
Lattice="2.5445879 0.0 0.0 -0.0 30.0 0.0 0.0 0.0 30.0" Properties=species:S:1:pos:R:3 pbc="T T T"
C        0.65607202      15.97239620      14.42592833
C        1.92840480      15.36468731      13.85043049
H        0.51718368      15.84824405      15.51660529
H        1.78952201      15.48878189      12.75976209
H        0.51734695      17.05495604      14.24413563
H        1.78955533      14.28212921      14.03225121
6
Lattice="2.5445879 0.0 0.0 -0.0 30.0 0.0 0.0 0.0 30.0" Properties=species:S:1:pos:R:3 pbc="T T T"
C        0.65109152      15.97238965      14.42597125
C        1.92341360      15.36469298      13.85038786
H        0.54692526      15.84833054      15.51664647
H        1.81925151      15.48870642      12.75972156
H        0.54704771      17.05492453      14.24407922
H        1.81927650      14.28215941      14.03230341
6
Lattice="2.5445879 0.0 0.0 -0.0 30.0 0.0 0.0 0.0 30.0" Properties=species:S:1:pos:R:3 pbc="T T T"
C        0.64611101      15.97238310      14.42601417
C        1.91842240      15.36469866      13.85034524
H        0.57666684      15.84841703      15.51668765
H        1.84898101      15.48863095      12.75968104
H        0.57674847      17.05489302      14.24402282
H        1.84899767      14.28218961      14.03235561
6
Lattice="2.5445879 0.0 0.0 -0.0 30.0 0.0 0.0 0.0 30.0" Properties=species:S:1:pos:R:3 pbc="T T T"
C        0.64113051      15.97237655      14.42605708
C        1.91343120      15.36470433      13.85030262
H        0.60640842      15.84850351      15.51672882
H        1.87871050      15.48855547      12.75964052
H        0.60644924      17.05486151      14.24396641
H        1.87871883      14.28221980      14.03240780
6
Lattice="2.5445879 0.0 0.0 -0.0 30.0 0.0 0.0 0.0 30.0" Properties=species:S:1:pos:R:3 pbc="T T T"
C        0.63615000      15.97237000      14.42610000
C        1.90844000      15.36471000      13.85026000
H        0.63615000      15.84859000      15.51677000
H        1.90844000      15.48848000      12.75960000
H        0.63615000      17.05483000      14.24391000
H        1.90844000      14.28225000      14.03246000
6
Lattice="2.5445879 0.0 0.0 -0.0 30.0 0.0 0.0 0.0 30.0" Properties=species:S:1:pos:R:3 pbc="T T T"
C        0.63116949      15.97236345      14.42614292
C        1.90344880      15.36471567      13.85021738
H        0.66589158      15.84867649      15.51681118
H        1.93816950      15.48840453      12.75955948
H        0.66585076      17.05479849      14.24385359
H        1.93816117      14.28228020      14.03251220
6
Lattice="2.5445879 0.0 0.0 -0.0 30.0 0.0 0.0 0.0 30.0" Properties=species:S:1:pos:R:3 pbc="T T T"
C        0.62618899      15.97235690      14.42618583
C        1.89845760      15.36472134      13.85017476
H        0.69563316      15.84876297      15.51685235
H        1.96789899      15.48832905      12.75951896
H        0.69555153      17.05476698      14.24379718
H        1.96788233      14.28231039      14.03256439
6
Lattice="2.5445879 0.0 0.0 -0.0 30.0 0.0 0.0 0.0 30.0" Properties=species:S:1:pos:R:3 pbc="T T T"
C        0.62120848      15.97235035      14.42622875
C        1.89346640      15.36472702      13.85013214
H        0.72537474      15.84884946      15.51689353
H        1.99762849      15.48825358      12.75947844
H        0.72525229      17.05473547      14.24374078
H        1.99760350      14.28234059      14.03261659
6
Lattice="2.5445879 0.0 0.0 -0.0 30.0 0.0 0.0 0.0 30.0" Properties=species:S:1:pos:R:3 pbc="T T T"
C        0.61622798      15.97234380      14.42627167
C        1.88847520      15.36473269      13.85008951
H        0.75511632      15.84893595      15.51693471
H        2.02735799      15.48817811      12.75943791
H        0.75495305      17.05470396      14.24368437
H        2.02732467      14.28237079      14.03266879
6
Lattice="2.5445879 0.0 0.0 -0.0 30.0 0.0 0.0 0.0 30.0" Properties=species:S:1:pos:R:3 pbc="T T T"
C        0.61124747      15.97233726      14.42631458
C        1.88348400      15.36473836      13.85004689
H        0.78485791      15.84902243      15.51697588
H        2.05708748      15.48810264      12.75939739
H        0.78465382      17.05467244      14.24362796
H        2.05704583      14.28240099      14.03272099
6
Lattice="2.5445879 0.0 0.0 -0.0 30.0 0.0 0.0 0.0 30.0" Properties=species:S:1:pos:R:3 pbc="T T T"
C        0.60626696      15.97233071      14.42635750
C        1.87849280      15.36474403      13.85000427
H        0.81459949      15.84910892      15.51701706
H        2.08681698      15.48802716      12.75935687
H        0.81435458      17.05464093      14.24357155
H        2.08676700      14.28243118      14.03277318
