6
Lattice="2.5445879 0.0 0.0 -0.0 30.0 0.0 0.0 0.0 30.0" Properties=species:S:1:pos:R:3 pbc="T T T"
C        0.63614927      15.98125854      14.43465301
C        1.90844055      15.37424579      13.85928805
H        0.63616321      15.86717253      15.38976926
H        1.90842747      15.50815953      12.62510614
H        0.63614909      16.93045720      14.26904760
H        1.90844125      14.14889344      14.05934015
6
Lattice="2.5445879 0.0 0.0 -0.0 30.0 0.0 0.0 0.0 30.0" Properties=species:S:1:pos:R:3 pbc="T T T"
C        0.63614938      15.97998875      14.43343116
C        1.90844047      15.37288353      13.85799833
H        0.63616132      15.86451788      15.40791222
H        1.90842926      15.50534817      12.64431955
H        0.63614922      16.94822475      14.26545651
H        1.90844107      14.16794438      14.05550013
6
Lattice="2.5445879 0.0 0.0 -0.0 30.0 0.0 0.0 0.0 30.0" Properties=species:S:1:pos:R:3 pbc="T T T"
C        0.63614948      15.97871896      14.43220930
C        1.90844040      15.37152128      13.85670861
H        0.63615944      15.86186324      15.42605518
H        1.90843105      15.50253681      12.66353296
H        0.63614935      16.96599229      14.26186543
H        1.90844089      14.18699532      14.05166011
6
Lattice="2.5445879 0.0 0.0 -0.0 30.0 0.0 0.0 0.0 30.0" Properties=species:S:1:pos:R:3 pbc="T T T"
C        0.63614958      15.97744917      14.43098744
C        1.90844032      15.37015902      13.85541888
H        0.63615755      15.85920859      15.44419815
H        1.90843284      15.49972545      12.68274636
H        0.63614948      16.98375983      14.25827434
H        1.90844071      14.20604625      14.04782008
6
Lattice="2.5445879 0.0 0.0 -0.0 30.0 0.0 0.0 0.0 30.0" Properties=species:S:1:pos:R:3 pbc="T T T"
C        0.63614969      15.97617938      14.42976558
C        1.90844024      15.36879677      13.85412916
H        0.63615566      15.85655394      15.46234111
H        1.90843463      15.49691409      12.70195977
H        0.63614961      17.00152737      14.25468326
H        1.90844053      14.22509719      14.04398006
6
Lattice="2.5445879 0.0 0.0 -0.0 30.0 0.0 0.0 0.0 30.0" Properties=species:S:1:pos:R:3 pbc="T T T"
C        0.63614979      15.97490958      14.42854372
C        1.90844016      15.36743451      13.85283944
H        0.63615377      15.85389929      15.48048407
H        1.90843642      15.49410272      12.72117318
H        0.63614974      17.01929492      14.25109217
H        1.90844036      14.24414813      14.04014004
6
Lattice="2.5445879 0.0 0.0 -0.0 30.0 0.0 0.0 0.0 30.0" Properties=species:S:1:pos:R:3 pbc="T T T"
C        0.63614990      15.97363979      14.42732186
C        1.90844008      15.36607226      13.85154972
H        0.63615189      15.85124465      15.49862704
H        1.90843821      15.49129136      12.74038659
H        0.63614987      17.03706246      14.24750109
H        1.90844018      14.26319906      14.03630002
6
Lattice="2.5445879 0.0 0.0 -0.0 30.0 0.0 0.0 0.0 30.0" Properties=species:S:1:pos:R:3 pbc="T T T"
C        0.63615000      15.97237000      14.42610000
C        1.90844000      15.36471000      13.85026000
H        0.63615000      15.84859000      15.51677000
H        1.90844000      15.48848000      12.75960000
H        0.63615000      17.05483000      14.24391000
H        1.90844000      14.28225000      14.03246000
6
Lattice="2.5445879 0.0 0.0 -0.0 30.0 0.0 0.0 0.0 30.0" Properties=species:S:1:pos:R:3 pbc="T T T"
C        0.63615010      15.97110021      14.42487814
C        1.90843992      15.36334774      13.84897028
H        0.63614811      15.84593535      15.53491296
H        1.90844179      15.48566864      12.77881341
H        0.63615013      17.07259754      14.24031891
H        1.90843982      14.30130094      14.02861998
6
Lattice="2.5445879 0.0 0.0 -0.0 30.0 0.0 0.0 0.0 30.0" Properties=species:S:1:pos:R:3 pbc="T T T"
C        0.63615021      15.96983042      14.42365628
C        1.90843984      15.36198549      13.84768056
H        0.63614623      15.84328071      15.55305593
H        1.90844358      15.48285728      12.79802682
H        0.63615026      17.09036508      14.23672783
H        1.90843964      14.32035187      14.02477996
6
Lattice="2.5445879 0.0 0.0 -0.0 30.0 0.0 0.0 0.0 30.0" Properties=species:S:1:pos:R:3 pbc="T T T"
C        0.63615031      15.96856062      14.42243442
C        1.90843976      15.36062323      13.84639084
H        0.63614434      15.84062606      15.57119889
H        1.90844537      15.48004591      12.81724023
H        0.63615039      17.10813263      14.23313674
H        1.90843947      14.33940281      14.02093994
6
Lattice="2.5445879 0.0 0.0 -0.0 30.0 0.0 0.0 0.0 30.0" Properties=species:S:1:pos:R:3 pbc="T T T"
C        0.63615042      15.96729083      14.42121256
C        1.90843968      15.35926098      13.84510112
H        0.63614245      15.83797141      15.58934185
H        1.90844716      15.47723455      12.83645364
H        0.63615052      17.12590017      14.22954566
H        1.90843929      14.35845375      14.01709992
6
Lattice="2.5445879 0.0 0.0 -0.0 30.0 0.0 0.0 0.0 30.0" Properties=species:S:1:pos:R:3 pbc="T T T"
C        0.63615052      15.96602104      14.41999070
C        1.90843960      15.35789872      13.84381139
H        0.63614056      15.83531676      15.60748482
H        1.90844895      15.47442319      12.85566704
H        0.63615065      17.14366771      14.22595457
H        1.90843911      14.37750468      14.01325989
6
Lattice="2.5445879 0.0 0.0 -0.0 30.0 0.0 0.0 0.0 30.0" Properties=species:S:1:pos:R:3 pbc="T T T"
C        0.63615062      15.96475125      14.41876884
C        1.90843953      15.35653647      13.84252167
H        0.63613868      15.83266212      15.62562778
H        1.90845074      15.47161183      12.87488045
H        0.63615078      17.16143525      14.22236349
H        1.90843893      14.39655562      14.00941987
6
Lattice="2.5445879 0.0 0.0 -0.0 30.0 0.0 0.0 0.0 30.0" Properties=species:S:1:pos:R:3 pbc="T T T"
C        0.63615073      15.96348146      14.41754699
C        1.90843945      15.35517421      13.84123195
H        0.63613679      15.83000747      15.64377074
H        1.90845253      15.46880047      12.89409386
H        0.63615091      17.17920280      14.21877240
H        1.90843875      14.41560656      14.00557985
6
Lattice="2.5445879 0.0 0.0 -0.0 30.0 0.0 0.0 0.0 30.0" Properties=species:S:1:pos:R:3 pbc="T T T"
C        0.63615062      15.96475125      14.41876884
C        1.90843953      15.35653647      13.84252167
H        0.63613868      15.83266212      15.62562778
H        1.90845074      15.47161183      12.87488045
H        0.63615078      17.16143525      14.22236349
H        1.90843893      14.39655562      14.00941987
6
Lattice="2.5445879 0.0 0.0 -0.0 30.0 0.0 0.0 0.0 30.0" Properties=species:S:1:pos:R:3 pbc="T T T"
C        0.63615052      15.96602104      14.41999070
C        1.90843960      15.35789872      13.84381139
H        0.63614056      15.83531676      15.60748482
H        1.90844895      15.47442319      12.85566704
H        0.63615065      17.14366771      14.22595457
H        1.90843911      14.37750468      14.01325989
6
Lattice="2.5445879 0.0 0.0 -0.0 30.0 0.0 0.0 0.0 30.0" Properties=species:S:1:pos:R:3 pbc="T T T"
C        0.63615042      15.96729083      14.42121256
C        1.90843968      15.35926098      13.84510112
H        0.63614245      15.83797141      15.58934185
H        1.90844716      15.47723455      12.83645364
H        0.63615052      17.12590017      14.22954566
H        1.90843929      14.35845375      14.01709992
6
Lattice="2.5445879 0.0 0.0 -0.0 30.0 0.0 0.0 0.0 30.0" Properties=species:S:1:pos:R:3 pbc="T T T"
C        0.63615031      15.96856062      14.42243442
C        1.90843976      15.36062323      13.84639084
H        0.63614434      15.84062606      15.57119889
H        1.90844537      15.48004591      12.81724023
H        0.63615039      17.10813263      14.23313674
H        1.90843947      14.33940281      14.02093994
6
Lattice="2.5445879 0.0 0.0 -0.0 30.0 0.0 0.0 0.0 30.0" Properties=species:S:1:pos:R:3 pbc="T T T"
C        0.63615021      15.96983042      14.42365628
C        1.90843984      15.36198549      13.84768056
H        0.63614623      15.84328071      15.55305593
H        1.90844358      15.48285728      12.79802682
H        0.63615026      17.09036508      14.23672783
H        1.90843964      14.32035187      14.02477996
6
Lattice="2.5445879 0.0 0.0 -0.0 30.0 0.0 0.0 0.0 30.0" Properties=species:S:1:pos:R:3 pbc="T T T"
C        0.63615010      15.97110021      14.42487814
C        1.90843992      15.36334774      13.84897028
H        0.63614811      15.84593535      15.53491296
H        1.90844179      15.48566864      12.77881341
H        0.63615013      17.07259754      14.24031891
H        1.90843982      14.30130094      14.02861998
6
Lattice="2.5445879 0.0 0.0 -0.0 30.0 0.0 0.0 0.0 30.0" Properties=species:S:1:pos:R:3 pbc="T T T"
C        0.63615000      15.97237000      14.42610000
C        1.90844000      15.36471000      13.85026000
H        0.63615000      15.84859000      15.51677000
H        1.90844000      15.48848000      12.75960000
H        0.63615000      17.05483000      14.24391000
H        1.90844000      14.28225000      14.03246000
6
Lattice="2.5445879 0.0 0.0 -0.0 30.0 0.0 0.0 0.0 30.0" Properties=species:S:1:pos:R:3 pbc="T T T"
C        0.63614990      15.97363979      14.42732186
C        1.90844008      15.36607226      13.85154972
H        0.63615189      15.85124465      15.49862704
H        1.90843821      15.49129136      12.74038659
H        0.63614987      17.03706246      14.24750109
H        1.90844018      14.26319906      14.03630002
6
Lattice="2.5445879 0.0 0.0 -0.0 30.0 0.0 0.0 0.0 30.0" Properties=species:S:1:pos:R:3 pbc="T T T"
C        0.63614979      15.97490958      14.42854372
C        1.90844016      15.36743451      13.85283944
H        0.63615377      15.85389929      15.48048407
H        1.90843642      15.49410272      12.72117318
H        0.63614974      17.01929492      14.25109217
H        1.90844036      14.24414813      14.04014004
6
Lattice="2.5445879 0.0 0.0 -0.0 30.0 0.0 0.0 0.0 30.0" Properties=species:S:1:pos:R:3 pbc="T T T"
C        0.63614969      15.97617938      14.42976558
C        1.90844024      15.36879677      13.85412916
H        0.63615566      15.85655394      15.46234111
H        1.90843463      15.49691409      12.70195977
H        0.63614961      17.00152737      14.25468326
H        1.90844053      14.22509719      14.04398006
6
Lattice="2.5445879 0.0 0.0 -0.0 30.0 0.0 0.0 0.0 30.0" Properties=species:S:1:pos:R:3 pbc="T T T"
C        0.63614958      15.97744917      14.43098744
C        1.90844032      15.37015902      13.85541888
H        0.63615755      15.85920859      15.44419815
H        1.90843284      15.49972545      12.68274636
H        0.63614948      16.98375983      14.25827434
H        1.90844071      14.20604625      14.04782008
6
Lattice="2.5445879 0.0 0.0 -0.0 30.0 0.0 0.0 0.0 30.0" Properties=species:S:1:pos:R:3 pbc="T T T"
C        0.63614948      15.97871896      14.43220930
C        1.90844040      15.37152128      13.85670861
H        0.63615944      15.86186324      15.42605518
H        1.90843105      15.50253681      12.66353296
H        0.63614935      16.96599229      14.26186543
H        1.90844089      14.18699532      14.05166011
6
Lattice="2.5445879 0.0 0.0 -0.0 30.0 0.0 0.0 0.0 30.0" Properties=species:S:1:pos:R:3 pbc="T T T"
C        0.63614938      15.97998875      14.43343116
C        1.90844047      15.37288353      13.85799833
H        0.63616132      15.86451788      15.40791222
H        1.90842926      15.50534817      12.64431955
H        0.63614922      16.94822475      14.26545651
H        1.90844107      14.16794438      14.05550013
