6
Lattice="2.5445879 0.0 0.0 -0.0 30.0 0.0 0.0 0.0 30.0" Properties=species:S:1:pos:R:3 pbc="T T T"
C        0.63492457      15.76875223      14.62793739
C        1.90721824      15.51943852      13.67473341
H        0.63490438      14.97271055      15.64198369
H        1.90728953      16.31821096      12.66093460
H        0.63494097      16.96322157      15.11378621
H        1.90713896      14.32462741      13.18676338
6
Lattice="2.5445879 0.0 0.0 -0.0 30.0 0.0 0.0 0.0 30.0" Properties=species:S:1:pos:R:3 pbc="T T T"
C        0.63509963      15.79784049      14.59910348
C        1.90739278      15.49733444      13.69980864
H        0.63508232      15.09783619      15.62409602
H        1.90745388      16.19967797      12.67502966
H        0.63511369      16.97630849      14.98951818
H        1.90732483      14.31857350      13.30757718
6
Lattice="2.5445879 0.0 0.0 -0.0 30.0 0.0 0.0 0.0 30.0" Properties=species:S:1:pos:R:3 pbc="T T T"
C        0.63527469      15.82692874      14.57026956
C        1.90756731      15.47523037      13.72488386
H        0.63526027      15.22296182      15.60620835
H        1.90761823      16.08114497      12.68912472
H        0.63528641      16.98939541      14.86525015
H        1.90751069      14.31251958      13.42839099
6
Lattice="2.5445879 0.0 0.0 -0.0 30.0 0.0 0.0 0.0 30.0" Properties=species:S:1:pos:R:3 pbc="T T T"
C        0.63544976      15.85601699      14.54143565
C        1.90774185      15.45312630      13.74995909
H        0.63543821      15.34808746      15.58832068
H        1.90778259      15.96261198      12.70321977
H        0.63545912      17.00248233      14.74098212
H        1.90769655      14.30646566      13.54920479
6
Lattice="2.5445879 0.0 0.0 -0.0 30.0 0.0 0.0 0.0 30.0" Properties=species:S:1:pos:R:3 pbc="T T T"
C        0.63562482      15.88510524      14.51260174
C        1.90791639      15.43102222      13.77503432
H        0.63561616      15.47321309      15.57043301
H        1.90794694      15.84407898      12.71731483
H        0.63563184      17.01556925      14.61671409
H        1.90788241      14.30041175      13.67001859
6
Lattice="2.5445879 0.0 0.0 -0.0 30.0 0.0 0.0 0.0 30.0" Properties=species:S:1:pos:R:3 pbc="T T T"
C        0.63579988      15.91419350      14.48376783
C        1.90809093      15.40891815      13.80010955
H        0.63579411      15.59833873      15.55254534
H        1.90811129      15.72554599      12.73140989
H        0.63580456      17.02865616      14.49244606
H        1.90806828      14.29435783      13.79083239
6
Lattice="2.5445879 0.0 0.0 -0.0 30.0 0.0 0.0 0.0 30.0" Properties=species:S:1:pos:R:3 pbc="T T T"
C        0.63597494      15.94328175      14.45493391
C        1.90826546      15.38681407      13.82518477
H        0.63597205      15.72346436      15.53465767
H        1.90827565      15.60701299      12.74550494
H        0.63597728      17.04174308      14.36817803
H        1.90825414      14.28830392      13.91164620
6
Lattice="2.5445879 0.0 0.0 -0.0 30.0 0.0 0.0 0.0 30.0" Properties=species:S:1:pos:R:3 pbc="T T T"
C        0.63615000      15.97237000      14.42610000
C        1.90844000      15.36471000      13.85026000
H        0.63615000      15.84859000      15.51677000
H        1.90844000      15.48848000      12.75960000
H        0.63615000      17.05483000      14.24391000
H        1.90844000      14.28225000      14.03246000
6
Lattice="2.5445879 0.0 0.0 -0.0 30.0 0.0 0.0 0.0 30.0" Properties=species:S:1:pos:R:3 pbc="T T T"
C        0.63632506      16.00145825      14.39726609
C        1.90861454      15.34260593      13.87533523
H        0.63632795      15.97371564      15.49888233
H        1.90860435      15.36994701      12.77369506
H        0.63632272      17.06791692      14.11964197
H        1.90862586      14.27619608      14.15327380
6
Lattice="2.5445879 0.0 0.0 -0.0 30.0 0.0 0.0 0.0 30.0" Properties=species:S:1:pos:R:3 pbc="T T T"
C        0.63650012      16.03054650      14.36843217
C        1.90878907      15.32050185      13.90041045
H        0.63650589      16.09884127      15.48099466
H        1.90876871      15.25141401      12.78779011
H        0.63649544      17.08100384      13.99537394
H        1.90881172      14.27014217      14.27408761
6
Lattice="2.5445879 0.0 0.0 -0.0 30.0 0.0 0.0 0.0 30.0" Properties=species:S:1:pos:R:3 pbc="T T T"
C        0.63667518      16.05963476      14.33959826
C        1.90896361      15.29839778      13.92548568
H        0.63668384      16.22396691      15.46310699
H        1.90893306      15.13288102      12.80188517
H        0.63666816      17.09409075      13.87110591
H        1.90899759      14.26408825      14.39490141
6
Lattice="2.5445879 0.0 0.0 -0.0 30.0 0.0 0.0 0.0 30.0" Properties=species:S:1:pos:R:3 pbc="T T T"
C        0.63685024      16.08872301      14.31076435
C        1.90913815      15.27629370      13.95056091
H        0.63686179      16.34909254      15.44521932
H        1.90909741      15.01434802      12.81598023
H        0.63684088      17.10717767      13.74683788
H        1.90918345      14.25803434      14.51571521
6
Lattice="2.5445879 0.0 0.0 -0.0 30.0 0.0 0.0 0.0 30.0" Properties=species:S:1:pos:R:3 pbc="T T T"
C        0.63702531      16.11781126      14.28193044
C        1.90931269      15.25418963      13.97563614
H        0.63703973      16.47421818      15.42733165
H        1.90926177      14.89581503      12.83007528
H        0.63701359      17.12026459      13.62256985
H        1.90936931      14.25198042      14.63652901
6
Lattice="2.5445879 0.0 0.0 -0.0 30.0 0.0 0.0 0.0 30.0" Properties=species:S:1:pos:R:3 pbc="T T T"
C        0.63720037      16.14689951      14.25309652
C        1.90948722      15.23208556      14.00071136
H        0.63721768      16.59934381      15.40944398
H        1.90942612      14.77728203      12.84417034
H        0.63718631      17.13335151      13.49830182
H        1.90955517      14.24592650      14.75734282
6
Lattice="2.5445879 0.0 0.0 -0.0 30.0 0.0 0.0 0.0 30.0" Properties=species:S:1:pos:R:3 pbc="T T T"
C        0.63737543      16.17598777      14.22426261
C        1.90966176      15.20998148      14.02578659
H        0.63739562      16.72446945      15.39155631
H        1.90959047      14.65874904      12.85826540
H        0.63735903      17.14643843      13.37403379
H        1.90974104      14.23987259      14.87815662
6
Lattice="2.5445879 0.0 0.0 -0.0 30.0 0.0 0.0 0.0 30.0" Properties=species:S:1:pos:R:3 pbc="T T T"
C        0.63720037      16.14689951      14.25309652
C        1.90948722      15.23208556      14.00071136
H        0.63721768      16.59934381      15.40944398
H        1.90942612      14.77728203      12.84417034
H        0.63718631      17.13335151      13.49830182
H        1.90955517      14.24592650      14.75734282
6
Lattice="2.5445879 0.0 0.0 -0.0 30.0 0.0 0.0 0.0 30.0" Properties=species:S:1:pos:R:3 pbc="T T T"
C        0.63702531      16.11781126      14.28193044
C        1.90931269      15.25418963      13.97563614
H        0.63703973      16.47421818      15.42733165
H        1.90926177      14.89581503      12.83007528
H        0.63701359      17.12026459      13.62256985
H        1.90936931      14.25198042      14.63652901
6
Lattice="2.5445879 0.0 0.0 -0.0 30.0 0.0 0.0 0.0 30.0" Properties=species:S:1:pos:R:3 pbc="T T T"
C        0.63685024      16.08872301      14.31076435
C        1.90913815      15.27629370      13.95056091
H        0.63686179      16.34909254      15.44521932
H        1.90909741      15.01434802      12.81598023
H        0.63684088      17.10717767      13.74683788
H        1.90918345      14.25803434      14.51571521
6
Lattice="2.5445879 0.0 0.0 -0.0 30.0 0.0 0.0 0.0 30.0" Properties=species:S:1:pos:R:3 pbc="T T T"
C        0.63667518      16.05963476      14.33959826
C        1.90896361      15.29839778      13.92548568
H        0.63668384      16.22396691      15.46310699
H        1.90893306      15.13288102      12.80188517
H        0.63666816      17.09409075      13.87110591
H        1.90899759      14.26408825      14.39490141
6
Lattice="2.5445879 0.0 0.0 -0.0 30.0 0.0 0.0 0.0 30.0" Properties=species:S:1:pos:R:3 pbc="T T T"
C        0.63650012      16.03054650      14.36843217
C        1.90878907      15.32050185      13.90041045
H        0.63650589      16.09884127      15.48099466
H        1.90876871      15.25141401      12.78779011
H        0.63649544      17.08100384      13.99537394
H        1.90881172      14.27014217      14.27408761
6
Lattice="2.5445879 0.0 0.0 -0.0 30.0 0.0 0.0 0.0 30.0" Properties=species:S:1:pos:R:3 pbc="T T T"
C        0.63632506      16.00145825      14.39726609
C        1.90861454      15.34260593      13.87533523
H        0.63632795      15.97371564      15.49888233
H        1.90860435      15.36994701      12.77369506
H        0.63632272      17.06791692      14.11964197
H        1.90862586      14.27619608      14.15327380
6
Lattice="2.5445879 0.0 0.0 -0.0 30.0 0.0 0.0 0.0 30.0" Properties=species:S:1:pos:R:3 pbc="T T T"
C        0.63615000      15.97237000      14.42610000
C        1.90844000      15.36471000      13.85026000
H        0.63615000      15.84859000      15.51677000
H        1.90844000      15.48848000      12.75960000
H        0.63615000      17.05483000      14.24391000
H        1.90844000      14.28225000      14.03246000
6
Lattice="2.5445879 0.0 0.0 -0.0 30.0 0.0 0.0 0.0 30.0" Properties=species:S:1:pos:R:3 pbc="T T T"
C        0.63597494      15.94328175      14.45493391
C        1.90826546      15.38681407      13.82518477
H        0.63597205      15.72346436      15.53465767
H        1.90827565      15.60701299      12.74550494
H        0.63597728      17.04174308      14.36817803
H        1.90825414      14.28830392      13.91164620
6
Lattice="2.5445879 0.0 0.0 -0.0 30.0 0.0 0.0 0.0 30.0" Properties=species:S:1:pos:R:3 pbc="T T T"
C        0.63579988      15.91419350      14.48376783
C        1.90809093      15.40891815      13.80010955
H        0.63579411      15.59833873      15.55254534
H        1.90811129      15.72554599      12.73140989
H        0.63580456      17.02865616      14.49244606
H        1.90806828      14.29435783      13.79083239
6
Lattice="2.5445879 0.0 0.0 -0.0 30.0 0.0 0.0 0.0 30.0" Properties=species:S:1:pos:R:3 pbc="T T T"
C        0.63562482      15.88510524      14.51260174
C        1.90791639      15.43102222      13.77503432
H        0.63561616      15.47321309      15.57043301
H        1.90794694      15.84407898      12.71731483
H        0.63563184      17.01556925      14.61671409
H        1.90788241      14.30041175      13.67001859
6
Lattice="2.5445879 0.0 0.0 -0.0 30.0 0.0 0.0 0.0 30.0" Properties=species:S:1:pos:R:3 pbc="T T T"
C        0.63544976      15.85601699      14.54143565
C        1.90774185      15.45312630      13.74995909
H        0.63543821      15.34808746      15.58832068
H        1.90778259      15.96261198      12.70321977
H        0.63545912      17.00248233      14.74098212
H        1.90769655      14.30646566      13.54920479
6
Lattice="2.5445879 0.0 0.0 -0.0 30.0 0.0 0.0 0.0 30.0" Properties=species:S:1:pos:R:3 pbc="T T T"
C        0.63527469      15.82692874      14.57026956
C        1.90756731      15.47523037      13.72488386
H        0.63526027      15.22296182      15.60620835
H        1.90761823      16.08114497      12.68912472
H        0.63528641      16.98939541      14.86525015
H        1.90751069      14.31251958      13.42839099
6
Lattice="2.5445879 0.0 0.0 -0.0 30.0 0.0 0.0 0.0 30.0" Properties=species:S:1:pos:R:3 pbc="T T T"
C        0.63509963      15.79784049      14.59910348
C        1.90739278      15.49733444      13.69980864
H        0.63508232      15.09783619      15.62409602
H        1.90745388      16.19967797      12.67502966
H        0.63511369      16.97630849      14.98951818
H        1.90732483      14.31857350      13.30757718
