6
Lattice="2.5445879 0.0 0.0 -0.0 30.0 0.0 0.0 0.0 30.0" Properties=species:S:1:pos:R:3 pbc="T T T"
C        0.63615927      15.98988077      14.44263507
C        1.90842960      15.38211735      13.86677287
H        0.63611866      15.66176089      15.50351262
H        1.90850052      15.30520590      12.74667296
H        0.63615138      17.03163250      14.05833397
H        1.90845691      14.25941999      13.85007217
6
Lattice="2.5445879 0.0 0.0 -0.0 30.0 0.0 0.0 0.0 30.0" Properties=species:S:1:pos:R:3 pbc="T T T"
C        0.63615795      15.98737923      14.44027291
C        1.90843108      15.37963058      13.86441389
H        0.63612313      15.68845076      15.50540653
H        1.90849188      15.33138791      12.74851968
H        0.63615119      17.03494643      14.08484483
H        1.90845449      14.26268142      13.87612757
6
Lattice="2.5445879 0.0 0.0 -0.0 30.0 0.0 0.0 0.0 30.0" Properties=species:S:1:pos:R:3 pbc="T T T"
C        0.63615662      15.98487769      14.43791076
C        1.90843257      15.37714382      13.86205491
H        0.63612761      15.71514064      15.50730044
H        1.90848323      15.35756993      12.75036640
H        0.63615099      17.03826036      14.11135569
H        1.90845208      14.26594285      13.90218298
6
Lattice="2.5445879 0.0 0.0 -0.0 30.0 0.0 0.0 0.0 30.0" Properties=species:S:1:pos:R:3 pbc="T T T"
C        0.63615530      15.98237615      14.43554861
C        1.90843406      15.37465706      13.85969593
H        0.63613209      15.74183051      15.50919435
H        1.90847458      15.38375194      12.75221312
H        0.63615079      17.04157429      14.13786655
H        1.90844966      14.26920428      13.92823838
6
Lattice="2.5445879 0.0 0.0 -0.0 30.0 0.0 0.0 0.0 30.0" Properties=species:S:1:pos:R:3 pbc="T T T"
C        0.63615397      15.97987462      14.43318646
C        1.90843554      15.37217029      13.85733694
H        0.63613657      15.76852038      15.51108827
H        1.90846594      15.40993396      12.75405984
H        0.63615059      17.04488822      14.16437742
H        1.90844725      14.27246571      13.95429379
6
Lattice="2.5445879 0.0 0.0 -0.0 30.0 0.0 0.0 0.0 30.0" Properties=species:S:1:pos:R:3 pbc="T T T"
C        0.63615265      15.97737308      14.43082430
C        1.90843703      15.36968353      13.85497796
H        0.63614104      15.79521025      15.51298218
H        1.90845729      15.43611597      12.75590656
H        0.63615040      17.04820214      14.19088828
H        1.90844483      14.27572714      13.98034919
6
Lattice="2.5445879 0.0 0.0 -0.0 30.0 0.0 0.0 0.0 30.0" Properties=species:S:1:pos:R:3 pbc="T T T"
C        0.63615132      15.97487154      14.42846215
C        1.90843851      15.36719676      13.85261898
H        0.63614552      15.82190013      15.51487609
H        1.90844865      15.46229799      12.75775328
H        0.63615020      17.05151607      14.21739914
H        1.90844242      14.27898857      14.00640460
6
Lattice="2.5445879 0.0 0.0 -0.0 30.0 0.0 0.0 0.0 30.0" Properties=species:S:1:pos:R:3 pbc="T T T"
C        0.63615000      15.97237000      14.42610000
C        1.90844000      15.36471000      13.85026000
H        0.63615000      15.84859000      15.51677000
H        1.90844000      15.48848000      12.75960000
H        0.63615000      17.05483000      14.24391000
H        1.90844000      14.28225000      14.03246000
6
Lattice="2.5445879 0.0 0.0 -0.0 30.0 0.0 0.0 0.0 30.0" Properties=species:S:1:pos:R:3 pbc="T T T"
C        0.63614868      15.96986846      14.42373785
C        1.90844149      15.36222324      13.84790102
H        0.63615448      15.87527987      15.51866391
H        1.90843135      15.51466201      12.76144672
H        0.63614980      17.05814393      14.27042086
H        1.90843758      14.28551143      14.05851540
6
Lattice="2.5445879 0.0 0.0 -0.0 30.0 0.0 0.0 0.0 30.0" Properties=species:S:1:pos:R:3 pbc="T T T"
C        0.63614735      15.96736692      14.42137570
C        1.90844297      15.35973647      13.84554204
H        0.63615896      15.90196975      15.52055782
H        1.90842271      15.54084403      12.76329344
H        0.63614960      17.06145786      14.29693172
H        1.90843517      14.28877286      14.08457081
6
Lattice="2.5445879 0.0 0.0 -0.0 30.0 0.0 0.0 0.0 30.0" Properties=species:S:1:pos:R:3 pbc="T T T"
C        0.63614603      15.96486538      14.41901354
C        1.90844446      15.35724971      13.84318306
H        0.63616343      15.92865962      15.52245173
H        1.90841406      15.56702604      12.76514016
H        0.63614941      17.06477178      14.32344258
H        1.90843275      14.29203429      14.11062621
6
Lattice="2.5445879 0.0 0.0 -0.0 30.0 0.0 0.0 0.0 30.0" Properties=species:S:1:pos:R:3 pbc="T T T"
C        0.63614470      15.96236385      14.41665139
C        1.90844594      15.35476294      13.84082407
H        0.63616791      15.95534949      15.52434565
H        1.90840542      15.59320806      12.76698688
H        0.63614921      17.06808571      14.34995345
H        1.90843034      14.29529572      14.13668162
6
Lattice="2.5445879 0.0 0.0 -0.0 30.0 0.0 0.0 0.0 30.0" Properties=species:S:1:pos:R:3 pbc="T T T"
C        0.63614338      15.95986231      14.41428924
C        1.90844743      15.35227618      13.83846509
H        0.63617239      15.98203936      15.52623956
H        1.90839677      15.61939007      12.76883360
H        0.63614901      17.07139964      14.37646431
H        1.90842792      14.29855715      14.16273702
6
Lattice="2.5445879 0.0 0.0 -0.0 30.0 0.0 0.0 0.0 30.0" Properties=species:S:1:pos:R:3 pbc="T T T"
C        0.63614205      15.95736077      14.41192709
C        1.90844892      15.34978942      13.83610611
H        0.63617687      16.00872924      15.52813347
H        1.90838812      15.64557209      12.77068032
H        0.63614881      17.07471357      14.40297517
H        1.90842551      14.30181858      14.18879243
6
Lattice="2.5445879 0.0 0.0 -0.0 30.0 0.0 0.0 0.0 30.0" Properties=species:S:1:pos:R:3 pbc="T T T"
C        0.63614073      15.95485923      14.40956493
C        1.90845040      15.34730265      13.83374713
H        0.63618134      16.03541911      15.53002738
H        1.90837948      15.67175410      12.77252704
H        0.63614862      17.07802750      14.42948603
H        1.90842309      14.30508001      14.21484783
6
Lattice="2.5445879 0.0 0.0 -0.0 30.0 0.0 0.0 0.0 30.0" Properties=species:S:1:pos:R:3 pbc="T T T"
C        0.63614205      15.95736077      14.41192709
C        1.90844892      15.34978942      13.83610611
H        0.63617687      16.00872924      15.52813347
H        1.90838812      15.64557209      12.77068032
H        0.63614881      17.07471357      14.40297517
H        1.90842551      14.30181858      14.18879243
6
Lattice="2.5445879 0.0 0.0 -0.0 30.0 0.0 0.0 0.0 30.0" Properties=species:S:1:pos:R:3 pbc="T T T"
C        0.63614338      15.95986231      14.41428924
C        1.90844743      15.35227618      13.83846509
H        0.63617239      15.98203936      15.52623956
H        1.90839677      15.61939007      12.76883360
H        0.63614901      17.07139964      14.37646431
H        1.90842792      14.29855715      14.16273702
6
Lattice="2.5445879 0.0 0.0 -0.0 30.0 0.0 0.0 0.0 30.0" Properties=species:S:1:pos:R:3 pbc="T T T"
C        0.63614470      15.96236385      14.41665139
C        1.90844594      15.35476294      13.84082407
H        0.63616791      15.95534949      15.52434565
H        1.90840542      15.59320806      12.76698688
H        0.63614921      17.06808571      14.34995345
H        1.90843034      14.29529572      14.13668162
6
Lattice="2.5445879 0.0 0.0 -0.0 30.0 0.0 0.0 0.0 30.0" Properties=species:S:1:pos:R:3 pbc="T T T"
C        0.63614603      15.96486538      14.41901354
C        1.90844446      15.35724971      13.84318306
H        0.63616343      15.92865962      15.52245173
H        1.90841406      15.56702604      12.76514016
H        0.63614941      17.06477178      14.32344258
H        1.90843275      14.29203429      14.11062621
6
Lattice="2.5445879 0.0 0.0 -0.0 30.0 0.0 0.0 0.0 30.0" Properties=species:S:1:pos:R:3 pbc="T T T"
C        0.63614735      15.96736692      14.42137570
C        1.90844297      15.35973647      13.84554204
H        0.63615896      15.90196975      15.52055782
H        1.90842271      15.54084403      12.76329344
H        0.63614960      17.06145786      14.29693172
H        1.90843517      14.28877286      14.08457081
6
Lattice="2.5445879 0.0 0.0 -0.0 30.0 0.0 0.0 0.0 30.0" Properties=species:S:1:pos:R:3 pbc="T T T"
C        0.63614868      15.96986846      14.42373785
C        1.90844149      15.36222324      13.84790102
H        0.63615448      15.87527987      15.51866391
H        1.90843135      15.51466201      12.76144672
H        0.63614980      17.05814393      14.27042086
H        1.90843758      14.28551143      14.05851540
6
Lattice="2.5445879 0.0 0.0 -0.0 30.0 0.0 0.0 0.0 30.0" Properties=species:S:1:pos:R:3 pbc="T T T"
C        0.63615000      15.97237000      14.42610000
C        1.90844000      15.36471000      13.85026000
H        0.63615000      15.84859000      15.51677000
H        1.90844000      15.48848000      12.75960000
H        0.63615000      17.05483000      14.24391000
H        1.90844000      14.28225000      14.03246000
6
Lattice="2.5445879 0.0 0.0 -0.0 30.0 0.0 0.0 0.0 30.0" Properties=species:S:1:pos:R:3 pbc="T T T"
C        0.63615132      15.97487154      14.42846215
C        1.90843851      15.36719676      13.85261898
H        0.63614552      15.82190013      15.51487609
H        1.90844865      15.46229799      12.75775328
H        0.63615020      17.05151607      14.21739914
H        1.90844242      14.27898857      14.00640460
6
Lattice="2.5445879 0.0 0.0 -0.0 30.0 0.0 0.0 0.0 30.0" Properties=species:S:1:pos:R:3 pbc="T T T"
C        0.63615265      15.97737308      14.43082430
C        1.90843703      15.36968353      13.85497796
H        0.63614104      15.79521025      15.51298218
H        1.90845729      15.43611597      12.75590656
H        0.63615040      17.04820214      14.19088828
H        1.90844483      14.27572714      13.98034919
6
Lattice="2.5445879 0.0 0.0 -0.0 30.0 0.0 0.0 0.0 30.0" Properties=species:S:1:pos:R:3 pbc="T T T"
C        0.63615397      15.97987462      14.43318646
C        1.90843554      15.37217029      13.85733694
H        0.63613657      15.76852038      15.51108827
H        1.90846594      15.40993396      12.75405984
H        0.63615059      17.04488822      14.16437742
H        1.90844725      14.27246571      13.95429379
6
Lattice="2.5445879 0.0 0.0 -0.0 30.0 0.0 0.0 0.0 30.0" Properties=species:S:1:pos:R:3 pbc="T T T"
C        0.63615530      15.98237615      14.43554861
C        1.90843406      15.37465706      13.85969593
H        0.63613209      15.74183051      15.50919435
H        1.90847458      15.38375194      12.75221312
H        0.63615079      17.04157429      14.13786655
H        1.90844966      14.26920428      13.92823838
6
Lattice="2.5445879 0.0 0.0 -0.0 30.0 0.0 0.0 0.0 30.0" Properties=species:S:1:pos:R:3 pbc="T T T"
C        0.63615662      15.98487769      14.43791076
C        1.90843257      15.37714382      13.86205491
H        0.63612761      15.71514064      15.50730044
H        1.90848323      15.35756993      12.75036640
H        0.63615099      17.03826036      14.11135569
H        1.90845208      14.26594285      13.90218298
6
Lattice="2.5445879 0.0 0.0 -0.0 30.0 0.0 0.0 0.0 30.0" Properties=species:S:1:pos:R:3 pbc="T T T"
C        0.63615795      15.98737923      14.44027291
C        1.90843108      15.37963058      13.86441389
H        0.63612313      15.68845076      15.50540653
H        1.90849188      15.33138791      12.74851968
H        0.63615119      17.03494643      14.08484483
H        1.90845449      14.26268142      13.87612757
