6
Lattice="2.5445879 0.0 0.0 -0.0 30.0 0.0 0.0 0.0 30.0" Properties=species:S:1:pos:R:3 pbc="T T T"
C        0.63614925      15.96153012      14.43882490
C        1.90844035      15.37557247      13.83748168
H        0.63614522      15.86303695      15.37720414
H        1.90845014      15.47394838      12.89980101
H        0.63614335      17.17543837      14.22557850
H        1.90843916      14.16146013      14.05081619
6
Lattice="2.5445879 0.0 0.0 -0.0 30.0 0.0 0.0 0.0 30.0" Properties=species:S:1:pos:R:3 pbc="T T T"
C        0.63614936      15.96307868      14.43700706
C        1.90844030      15.37402069      13.83930715
H        0.63614591      15.86097310      15.39714212
H        1.90844869      15.47602432      12.87977230
H        0.63614430      17.15820860      14.22819728
H        1.90843928      14.17871583      14.04819388
6
Lattice="2.5445879 0.0 0.0 -0.0 30.0 0.0 0.0 0.0 30.0" Properties=species:S:1:pos:R:3 pbc="T T T"
C        0.63614946      15.96462723      14.43518921
C        1.90844025      15.37246891      13.84113263
H        0.63614659      15.85890925      15.41708010
H        1.90844724      15.47810027      12.85974358
H        0.63614525      17.14097883      14.23081607
H        1.90843940      14.19597152      14.04557157
6
Lattice="2.5445879 0.0 0.0 -0.0 30.0 0.0 0.0 0.0 30.0" Properties=species:S:1:pos:R:3 pbc="T T T"
C        0.63614957      15.96617579      14.43337137
C        1.90844020      15.37091712      13.84295810
H        0.63614727      15.85684540      15.43701808
H        1.90844580      15.48017621      12.83971486
H        0.63614620      17.12374907      14.23343486
H        1.90843952      14.21322722      14.04294925
6
Lattice="2.5445879 0.0 0.0 -0.0 30.0 0.0 0.0 0.0 30.0" Properties=species:S:1:pos:R:3 pbc="T T T"
C        0.63614968      15.96772434      14.43155353
C        1.90844015      15.36936534      13.84478358
H        0.63614795      15.85478155      15.45695606
H        1.90844435      15.48225216      12.81968615
H        0.63614715      17.10651930      14.23605364
H        1.90843964      14.23048291      14.04032694
6
Lattice="2.5445879 0.0 0.0 -0.0 30.0 0.0 0.0 0.0 30.0" Properties=species:S:1:pos:R:3 pbc="T T T"
C        0.63614979      15.96927289      14.42973569
C        1.90844010      15.36781356      13.84660905
H        0.63614864      15.85271770      15.47689404
H        1.90844290      15.48432811      12.79965743
H        0.63614810      17.08928953      14.23867243
H        1.90843976      14.24773861      14.03770463
6
Lattice="2.5445879 0.0 0.0 -0.0 30.0 0.0 0.0 0.0 30.0" Properties=species:S:1:pos:R:3 pbc="T T T"
C        0.63614989      15.97082145      14.42791784
C        1.90844005      15.36626178      13.84843453
H        0.63614932      15.85065385      15.49683202
H        1.90844145      15.48640405      12.77962872
H        0.63614905      17.07205977      14.24129121
H        1.90843988      14.26499430      14.03508231
6
Lattice="2.5445879 0.0 0.0 -0.0 30.0 0.0 0.0 0.0 30.0" Properties=species:S:1:pos:R:3 pbc="T T T"
C        0.63615000      15.97237000      14.42610000
C        1.90844000      15.36471000      13.85026000
H        0.63615000      15.84859000      15.51677000
H        1.90844000      15.48848000      12.75960000
H        0.63615000      17.05483000      14.24391000
H        1.90844000      14.28225000      14.03246000
6
Lattice="2.5445879 0.0 0.0 -0.0 30.0 0.0 0.0 0.0 30.0" Properties=species:S:1:pos:R:3 pbc="T T T"
C        0.63615011      15.97391855      14.42428216
C        1.90843995      15.36315822      13.85208547
H        0.63615068      15.84652615      15.53670798
H        1.90843855      15.49055595      12.73957128
H        0.63615095      17.03760023      14.24652879
H        1.90844012      14.29950570      14.02983769
6
Lattice="2.5445879 0.0 0.0 -0.0 30.0 0.0 0.0 0.0 30.0" Properties=species:S:1:pos:R:3 pbc="T T T"
C        0.63615021      15.97546711      14.42246431
C        1.90843990      15.36160644      13.85391095
H        0.63615136      15.84446230      15.55664596
H        1.90843710      15.49263189      12.71954257
H        0.63615190      17.02037047      14.24914757
H        1.90844024      14.31676139      14.02721537
6
Lattice="2.5445879 0.0 0.0 -0.0 30.0 0.0 0.0 0.0 30.0" Properties=species:S:1:pos:R:3 pbc="T T T"
C        0.63615032      15.97701566      14.42064647
C        1.90843985      15.36005466      13.85573642
H        0.63615205      15.84239845      15.57658394
H        1.90843565      15.49470784      12.69951385
H        0.63615285      17.00314070      14.25176636
H        1.90844036      14.33401709      14.02459306
6
Lattice="2.5445879 0.0 0.0 -0.0 30.0 0.0 0.0 0.0 30.0" Properties=species:S:1:pos:R:3 pbc="T T T"
C        0.63615043      15.97856421      14.41882863
C        1.90843980      15.35850288      13.85756190
H        0.63615273      15.84033460      15.59652192
H        1.90843420      15.49678379      12.67948514
H        0.63615380      16.98591093      14.25438514
H        1.90844048      14.35127278      14.02197075
6
Lattice="2.5445879 0.0 0.0 -0.0 30.0 0.0 0.0 0.0 30.0" Properties=species:S:1:pos:R:3 pbc="T T T"
C        0.63615054      15.98011277      14.41701079
C        1.90843975      15.35695109      13.85938737
H        0.63615341      15.83827075      15.61645990
H        1.90843276      15.49885973      12.65945642
H        0.63615475      16.96868117      14.25700393
H        1.90844060      14.36852848      14.01934843
6
Lattice="2.5445879 0.0 0.0 -0.0 30.0 0.0 0.0 0.0 30.0" Properties=species:S:1:pos:R:3 pbc="T T T"
C        0.63615064      15.98166132      14.41519294
C        1.90843970      15.35539931      13.86121285
H        0.63615409      15.83620690      15.63639788
H        1.90843131      15.50093568      12.63942770
H        0.63615570      16.95145140      14.25962272
H        1.90844072      14.38578417      14.01672612
6
Lattice="2.5445879 0.0 0.0 -0.0 30.0 0.0 0.0 0.0 30.0" Properties=species:S:1:pos:R:3 pbc="T T T"
C        0.63615075      15.98320988      14.41337510
C        1.90843965      15.35384753      13.86303832
H        0.63615478      15.83414305      15.65633586
H        1.90842986      15.50301162      12.61939899
H        0.63615665      16.93422163      14.26224150
H        1.90844084      14.40303987      14.01410381
6
Lattice="2.5445879 0.0 0.0 -0.0 30.0 0.0 0.0 0.0 30.0" Properties=species:S:1:pos:R:3 pbc="T T T"
C        0.63615064      15.98166132      14.41519294
C        1.90843970      15.35539931      13.86121285
H        0.63615409      15.83620690      15.63639788
H        1.90843131      15.50093568      12.63942770
H        0.63615570      16.95145140      14.25962272
H        1.90844072      14.38578417      14.01672612
6
Lattice="2.5445879 0.0 0.0 -0.0 30.0 0.0 0.0 0.0 30.0" Properties=species:S:1:pos:R:3 pbc="T T T"
C        0.63615054      15.98011277      14.41701079
C        1.90843975      15.35695109      13.85938737
H        0.63615341      15.83827075      15.61645990
H        1.90843276      15.49885973      12.65945642
H        0.63615475      16.96868117      14.25700393
H        1.90844060      14.36852848      14.01934843
6
Lattice="2.5445879 0.0 0.0 -0.0 30.0 0.0 0.0 0.0 30.0" Properties=species:S:1:pos:R:3 pbc="T T T"
C        0.63615043      15.97856421      14.41882863
C        1.90843980      15.35850288      13.85756190
H        0.63615273      15.84033460      15.59652192
H        1.90843420      15.49678379      12.67948514
H        0.63615380      16.98591093      14.25438514
H        1.90844048      14.35127278      14.02197075
6
Lattice="2.5445879 0.0 0.0 -0.0 30.0 0.0 0.0 0.0 30.0" Properties=species:S:1:pos:R:3 pbc="T T T"
C        0.63615032      15.97701566      14.42064647
C        1.90843985      15.36005466      13.85573642
H        0.63615205      15.84239845      15.57658394
H        1.90843565      15.49470784      12.69951385
H        0.63615285      17.00314070      14.25176636
H        1.90844036      14.33401709      14.02459306
6
Lattice="2.5445879 0.0 0.0 -0.0 30.0 0.0 0.0 0.0 30.0" Properties=species:S:1:pos:R:3 pbc="T T T"
C        0.63615021      15.97546711      14.42246431
C        1.90843990      15.36160644      13.85391095
H        0.63615136      15.84446230      15.55664596
H        1.90843710      15.49263189      12.71954257
H        0.63615190      17.02037047      14.24914757
H        1.90844024      14.31676139      14.02721537
6
Lattice="2.5445879 0.0 0.0 -0.0 30.0 0.0 0.0 0.0 30.0" Properties=species:S:1:pos:R:3 pbc="T T T"
C        0.63615011      15.97391855      14.42428216
C        1.90843995      15.36315822      13.85208547
H        0.63615068      15.84652615      15.53670798
H        1.90843855      15.49055595      12.73957128
H        0.63615095      17.03760023      14.24652879
H        1.90844012      14.29950570      14.02983769
6
Lattice="2.5445879 0.0 0.0 -0.0 30.0 0.0 0.0 0.0 30.0" Properties=species:S:1:pos:R:3 pbc="T T T"
C        0.63615000      15.97237000      14.42610000
C        1.90844000      15.36471000      13.85026000
H        0.63615000      15.84859000      15.51677000
H        1.90844000      15.48848000      12.75960000
H        0.63615000      17.05483000      14.24391000
H        1.90844000      14.28225000      14.03246000
6
Lattice="2.5445879 0.0 0.0 -0.0 30.0 0.0 0.0 0.0 30.0" Properties=species:S:1:pos:R:3 pbc="T T T"
C        0.63614989      15.97082145      14.42791784
C        1.90844005      15.36626178      13.84843453
H        0.63614932      15.85065385      15.49683202
H        1.90844145      15.48640405      12.77962872
H        0.63614905      17.07205977      14.24129121
H        1.90843988      14.26499430      14.03508231
6
Lattice="2.5445879 0.0 0.0 -0.0 30.0 0.0 0.0 0.0 30.0" Properties=species:S:1:pos:R:3 pbc="T T T"
C        0.63614979      15.96927289      14.42973569
C        1.90844010      15.36781356      13.84660905
H        0.63614864      15.85271770      15.47689404
H        1.90844290      15.48432811      12.79965743
H        0.63614810      17.08928953      14.23867243
H        1.90843976      14.24773861      14.03770463
6
Lattice="2.5445879 0.0 0.0 -0.0 30.0 0.0 0.0 0.0 30.0" Properties=species:S:1:pos:R:3 pbc="T T T"
C        0.63614968      15.96772434      14.43155353
C        1.90844015      15.36936534      13.84478358
H        0.63614795      15.85478155      15.45695606
H        1.90844435      15.48225216      12.81968615
H        0.63614715      17.10651930      14.23605364
H        1.90843964      14.23048291      14.04032694
6
Lattice="2.5445879 0.0 0.0 -0.0 30.0 0.0 0.0 0.0 30.0" Properties=species:S:1:pos:R:3 pbc="T T T"
C        0.63614957      15.96617579      14.43337137
C        1.90844020      15.37091712      13.84295810
H        0.63614727      15.85684540      15.43701808
H        1.90844580      15.48017621      12.83971486
H        0.63614620      17.12374907      14.23343486
H        1.90843952      14.21322722      14.04294925
6
Lattice="2.5445879 0.0 0.0 -0.0 30.0 0.0 0.0 0.0 30.0" Properties=species:S:1:pos:R:3 pbc="T T T"
C        0.63614946      15.96462723      14.43518921
C        1.90844025      15.37246891      13.84113263
H        0.63614659      15.85890925      15.41708010
H        1.90844724      15.47810027      12.85974358
H        0.63614525      17.14097883      14.23081607
H        1.90843940      14.19597152      14.04557157
6
Lattice="2.5445879 0.0 0.0 -0.0 30.0 0.0 0.0 0.0 30.0" Properties=species:S:1:pos:R:3 pbc="T T T"
C        0.63614936      15.96307868      14.43700706
C        1.90844030      15.37402069      13.83930715
H        0.63614591      15.86097310      15.39714212
H        1.90844869      15.47602432      12.87977230
H        0.63614430      17.15820860      14.22819728
H        1.90843928      14.17871583      14.04819388
