6
Lattice="2.5445879 0.0 0.0 -0.0 30.0 0.0 0.0 0.0 30.0" Properties=species:S:1:pos:R:3 pbc="T T T"
C        0.63609250      15.97235839      14.42608673
C        1.90848464      15.36471665      13.85027422
H        0.43709605      15.84862189      15.51674176
H        2.10745752      15.48851759      12.75960328
H        0.83548146      17.05480572      14.24390492
H        1.70933765      14.28226470      14.03247632
6
Lattice="2.5445879 0.0 0.0 -0.0 30.0 0.0 0.0 0.0 30.0" Properties=species:S:1:pos:R:3 pbc="T T T"
C        0.63610071      15.97236005      14.42608863
C        1.90847826      15.36471570      13.85027219
H        0.46553233      15.84861734      15.51674579
H        2.07902644      15.48851222      12.75960281
H        0.80700554      17.05480919      14.24390565
H        1.73778084      14.28226260      14.03247399
6
Lattice="2.5445879 0.0 0.0 -0.0 30.0 0.0 0.0 0.0 30.0" Properties=species:S:1:pos:R:3 pbc="T T T"
C        0.63610893      15.97236171      14.42609052
C        1.90847188      15.36471475      13.85027016
H        0.49396861      15.84861278      15.51674983
H        2.05059537      15.48850685      12.75960234
H        0.77852961      17.05481266      14.24390637
H        1.76622403      14.28226050      14.03247166
6
Lattice="2.5445879 0.0 0.0 -0.0 30.0 0.0 0.0 0.0 30.0" Properties=species:S:1:pos:R:3 pbc="T T T"
C        0.63611714      15.97236337      14.42609242
C        1.90846551      15.36471380      13.85026813
H        0.52240489      15.84860822      15.51675386
H        2.02216430      15.48850148      12.75960187
H        0.75005369      17.05481613      14.24390710
H        1.79466723      14.28225840      14.03246933
6
Lattice="2.5445879 0.0 0.0 -0.0 30.0 0.0 0.0 0.0 30.0" Properties=species:S:1:pos:R:3 pbc="T T T"
C        0.63612536      15.97236503      14.42609431
C        1.90845913      15.36471285      13.85026610
H        0.55084117      15.84860367      15.51675790
H        1.99373322      15.48849611      12.75960140
H        0.72157777      17.05481960      14.24390782
H        1.82311042      14.28225630      14.03246699
6
Lattice="2.5445879 0.0 0.0 -0.0 30.0 0.0 0.0 0.0 30.0" Properties=species:S:1:pos:R:3 pbc="T T T"
C        0.63613357      15.97236668      14.42609621
C        1.90845275      15.36471190      13.85026406
H        0.57927744      15.84859911      15.51676193
H        1.96530215      15.48849074      12.75960094
H        0.69310185      17.05482306      14.24390855
H        1.85155361      14.28225420      14.03246466
6
Lattice="2.5445879 0.0 0.0 -0.0 30.0 0.0 0.0 0.0 30.0" Properties=species:S:1:pos:R:3 pbc="T T T"
C        0.63614179      15.97236834      14.42609810
C        1.90844638      15.36471095      13.85026203
H        0.60771372      15.84859456      15.51676597
H        1.93687107      15.48848537      12.75960047
H        0.66462592      17.05482653      14.24390927
H        1.87999681      14.28225210      14.03246233
6
Lattice="2.5445879 0.0 0.0 -0.0 30.0 0.0 0.0 0.0 30.0" Properties=species:S:1:pos:R:3 pbc="T T T"
C        0.63615000      15.97237000      14.42610000
C        1.90844000      15.36471000      13.85026000
H        0.63615000      15.84859000      15.51677000
H        1.90844000      15.48848000      12.75960000
H        0.63615000      17.05483000      14.24391000
H        1.90844000      14.28225000      14.03246000
6
Lattice="2.5445879 0.0 0.0 -0.0 30.0 0.0 0.0 0.0 30.0" Properties=species:S:1:pos:R:3 pbc="T T T"
C        0.63615821      15.97237166      14.42610190
C        1.90843362      15.36470905      13.85025797
H        0.66458628      15.84858544      15.51677403
H        1.88000893      15.48847463      12.75959953
H        0.60767408      17.05483347      14.24391073
H        1.93688319      14.28224790      14.03245767
6
Lattice="2.5445879 0.0 0.0 -0.0 30.0 0.0 0.0 0.0 30.0" Properties=species:S:1:pos:R:3 pbc="T T T"
C        0.63616643      15.97237332      14.42610379
C        1.90842725      15.36470810      13.85025594
H        0.69302256      15.84858089      15.51677807
H        1.85157785      15.48846926      12.75959906
H        0.57919815      17.05483694      14.24391145
H        1.96532639      14.28224580      14.03245534
6
Lattice="2.5445879 0.0 0.0 -0.0 30.0 0.0 0.0 0.0 30.0" Properties=species:S:1:pos:R:3 pbc="T T T"
C        0.63617464      15.97237497      14.42610569
C        1.90842087      15.36470715      13.85025390
H        0.72145883      15.84857633      15.51678210
H        1.82314678      15.48846389      12.75959860
H        0.55072223      17.05484040      14.24391218
H        1.99376958      14.28224370      14.03245301
6
Lattice="2.5445879 0.0 0.0 -0.0 30.0 0.0 0.0 0.0 30.0" Properties=species:S:1:pos:R:3 pbc="T T T"
C        0.63618286      15.97237663      14.42610758
C        1.90841449      15.36470620      13.85025187
H        0.74989511      15.84857178      15.51678614
H        1.79471570      15.48845852      12.75959813
H        0.52224631      17.05484387      14.24391290
H        2.02221277      14.28224160      14.03245067
6
Lattice="2.5445879 0.0 0.0 -0.0 30.0 0.0 0.0 0.0 30.0" Properties=species:S:1:pos:R:3 pbc="T T T"
C        0.63619107      15.97237829      14.42610948
C        1.90840812      15.36470525      13.85024984
H        0.77833139      15.84856722      15.51679017
H        1.76628463      15.48845315      12.75959766
H        0.49377039      17.05484734      14.24391363
H        2.05065597      14.28223950      14.03244834
6
Lattice="2.5445879 0.0 0.0 -0.0 30.0 0.0 0.0 0.0 30.0" Properties=species:S:1:pos:R:3 pbc="T T T"
C        0.63619929      15.97237995      14.42611137
C        1.90840174      15.36470430      13.85024781
H        0.80676767      15.84856266      15.51679421
H        1.73785356      15.48844778      12.75959719
H        0.46529446      17.05485081      14.24391435
H        2.07909916      14.28223740      14.03244601
6
Lattice="2.5445879 0.0 0.0 -0.0 30.0 0.0 0.0 0.0 30.0" Properties=species:S:1:pos:R:3 pbc="T T T"
C        0.63620750      15.97238161      14.42611327
C        1.90839536      15.36470335      13.85024578
H        0.83520395      15.84855811      15.51679824
H        1.70942248      15.48844241      12.75959672
H        0.43681854      17.05485428      14.24391508
H        2.10754235      14.28223530      14.03244368
6
Lattice="2.5445879 0.0 0.0 -0.0 30.0 0.0 0.0 0.0 30.0" Properties=species:S:1:pos:R:3 pbc="T T T"
C        0.63619929      15.97237995      14.42611137
C        1.90840174      15.36470430      13.85024781
H        0.80676767      15.84856266      15.51679421
H        1.73785356      15.48844778      12.75959719
H        0.46529446      17.05485081      14.24391435
H        2.07909916      14.28223740      14.03244601
6
Lattice="2.5445879 0.0 0.0 -0.0 30.0 0.0 0.0 0.0 30.0" Properties=species:S:1:pos:R:3 pbc="T T T"
C        0.63619107      15.97237829      14.42610948
C        1.90840812      15.36470525      13.85024984
H        0.77833139      15.84856722      15.51679017
H        1.76628463      15.48845315      12.75959766
H        0.49377039      17.05484734      14.24391363
H        2.05065597      14.28223950      14.03244834
6
Lattice="2.5445879 0.0 0.0 -0.0 30.0 0.0 0.0 0.0 30.0" Properties=species:S:1:pos:R:3 pbc="T T T"
C        0.63618286      15.97237663      14.42610758
C        1.90841449      15.36470620      13.85025187
H        0.74989511      15.84857178      15.51678614
H        1.79471570      15.48845852      12.75959813
H        0.52224631      17.05484387      14.24391290
H        2.02221277      14.28224160      14.03245067
6
Lattice="2.5445879 0.0 0.0 -0.0 30.0 0.0 0.0 0.0 30.0" Properties=species:S:1:pos:R:3 pbc="T T T"
C        0.63617464      15.97237497      14.42610569
C        1.90842087      15.36470715      13.85025390
H        0.72145883      15.84857633      15.51678210
H        1.82314678      15.48846389      12.75959860
H        0.55072223      17.05484040      14.24391218
H        1.99376958      14.28224370      14.03245301
6
Lattice="2.5445879 0.0 0.0 -0.0 30.0 0.0 0.0 0.0 30.0" Properties=species:S:1:pos:R:3 pbc="T T T"
C        0.63616643      15.97237332      14.42610379
C        1.90842725      15.36470810      13.85025594
H        0.69302256      15.84858089      15.51677807
H        1.85157785      15.48846926      12.75959906
H        0.57919815      17.05483694      14.24391145
H        1.96532639      14.28224580      14.03245534
6
Lattice="2.5445879 0.0 0.0 -0.0 30.0 0.0 0.0 0.0 30.0" Properties=species:S:1:pos:R:3 pbc="T T T"
C        0.63615821      15.97237166      14.42610190
C        1.90843362      15.36470905      13.85025797
H        0.66458628      15.84858544      15.51677403
H        1.88000893      15.48847463      12.75959953
H        0.60767408      17.05483347      14.24391073
H        1.93688319      14.28224790      14.03245767
6
Lattice="2.5445879 0.0 0.0 -0.0 30.0 0.0 0.0 0.0 30.0" Properties=species:S:1:pos:R:3 pbc="T T T"
C        0.63615000      15.97237000      14.42610000
C        1.90844000      15.36471000      13.85026000
H        0.63615000      15.84859000      15.51677000
H        1.90844000      15.48848000      12.75960000
H        0.63615000      17.05483000      14.24391000
H        1.90844000      14.28225000      14.03246000
6
Lattice="2.5445879 0.0 0.0 -0.0 30.0 0.0 0.0 0.0 30.0" Properties=species:S:1:pos:R:3 pbc="T T T"
C        0.63614179      15.97236834      14.42609810
C        1.90844638      15.36471095      13.85026203
H        0.60771372      15.84859456      15.51676597
H        1.93687107      15.48848537      12.75960047
H        0.66462592      17.05482653      14.24390927
H        1.87999681      14.28225210      14.03246233
6
Lattice="2.5445879 0.0 0.0 -0.0 30.0 0.0 0.0 0.0 30.0" Properties=species:S:1:pos:R:3 pbc="T T T"
C        0.63613357      15.97236668      14.42609621
C        1.90845275      15.36471190      13.85026406
H        0.57927744      15.84859911      15.51676193
H        1.96530215      15.48849074      12.75960094
H        0.69310185      17.05482306      14.24390855
H        1.85155361      14.28225420      14.03246466
6
Lattice="2.5445879 0.0 0.0 -0.0 30.0 0.0 0.0 0.0 30.0" Properties=species:S:1:pos:R:3 pbc="T T T"
C        0.63612536      15.97236503      14.42609431
C        1.90845913      15.36471285      13.85026610
H        0.55084117      15.84860367      15.51675790
H        1.99373322      15.48849611      12.75960140
H        0.72157777      17.05481960      14.24390782
H        1.82311042      14.28225630      14.03246699
6
Lattice="2.5445879 0.0 0.0 -0.0 30.0 0.0 0.0 0.0 30.0" Properties=species:S:1:pos:R:3 pbc="T T T"
C        0.63611714      15.97236337      14.42609242
C        1.90846551      15.36471380      13.85026813
H        0.52240489      15.84860822      15.51675386
H        2.02216430      15.48850148      12.75960187
H        0.75005369      17.05481613      14.24390710
H        1.79466723      14.28225840      14.03246933
6
Lattice="2.5445879 0.0 0.0 -0.0 30.0 0.0 0.0 0.0 30.0" Properties=species:S:1:pos:R:3 pbc="T T T"
C        0.63610893      15.97236171      14.42609052
C        1.90847188      15.36471475      13.85027016
H        0.49396861      15.84861278      15.51674983
H        2.05059537      15.48850685      12.75960234
H        0.77852961      17.05481266      14.24390637
H        1.76622403      14.28226050      14.03247166
6
Lattice="2.5445879 0.0 0.0 -0.0 30.0 0.0 0.0 0.0 30.0" Properties=species:S:1:pos:R:3 pbc="T T T"
C        0.63610071      15.97236005      14.42608863
C        1.90847826      15.36471570      13.85027219
H        0.46553233      15.84861734      15.51674579
H        2.07902644      15.48851222      12.75960281
H        0.80700554      17.05480919      14.24390565
H        1.73778084      14.28226260      14.03247399
