6
Lattice="2.5445879 0.0 0.0 -0.0 30.0 0.0 0.0 0.0 30.0" Properties=species:S:1:pos:R:3 pbc="T T T"
C        0.63597640      16.03595840      14.36002625
C        1.90828210      15.30112330      13.91627865
H        0.63721348      15.67076875      15.42953044
H        1.90946611      15.66614622      12.84679218
H        0.63709319      17.15282690      14.41800034
H        1.90936715      14.18441096      13.85916902
6
Lattice="2.5445879 0.0 0.0 -0.0 30.0 0.0 0.0 0.0 30.0" Properties=species:S:1:pos:R:3 pbc="T T T"
C        0.63600120      16.02687434      14.36946535
C        1.90830466      15.31020712      13.90684742
H        0.63706156      15.69617179      15.44199324
H        1.90931952      15.64076533      12.83433615
H        0.63695845      17.13882735      14.39313029
H        1.90923470      14.19838797      13.88392487
6
Lattice="2.5445879 0.0 0.0 -0.0 30.0 0.0 0.0 0.0 30.0" Properties=species:S:1:pos:R:3 pbc="T T T"
C        0.63602600      16.01779028      14.37890446
C        1.90832721      15.31929093      13.89741618
H        0.63690963      15.72157482      15.45445603
H        1.90917293      15.61538444      12.82188013
H        0.63682371      17.12482779      14.36826024
H        1.90910225      14.21236497      13.90868073
6
Lattice="2.5445879 0.0 0.0 -0.0 30.0 0.0 0.0 0.0 30.0" Properties=species:S:1:pos:R:3 pbc="T T T"
C        0.63605080      16.00870623      14.38834357
C        1.90834977      15.32837474      13.88798494
H        0.63675770      15.74697786      15.46691882
H        1.90902635      15.59000355      12.80942410
H        0.63668897      17.11082823      14.34339019
H        1.90896980      14.22634198      13.93343658
6
Lattice="2.5445879 0.0 0.0 -0.0 30.0 0.0 0.0 0.0 30.0" Properties=species:S:1:pos:R:3 pbc="T T T"
C        0.63607560      15.99962217      14.39778268
C        1.90837233      15.33745856      13.87855371
H        0.63660578      15.77238089      15.47938162
H        1.90887976      15.56462266      12.79696808
H        0.63655423      17.09682867      14.31852014
H        1.90883735      14.24031898      13.95819244
6
Lattice="2.5445879 0.0 0.0 -0.0 30.0 0.0 0.0 0.0 30.0" Properties=species:S:1:pos:R:3 pbc="T T T"
C        0.63610040      15.99053811      14.40722178
C        1.90839489      15.34654237      13.86912247
H        0.63645385      15.79778393      15.49184441
H        1.90873317      15.53924178      12.78451205
H        0.63641948      17.08282912      14.29365010
H        1.90870490      14.25429599      13.98294829
6
Lattice="2.5445879 0.0 0.0 -0.0 30.0 0.0 0.0 0.0 30.0" Properties=species:S:1:pos:R:3 pbc="T T T"
C        0.63612520      15.98145406      14.41666089
C        1.90841744      15.35562619      13.85969124
H        0.63630193      15.82318696      15.50430721
H        1.90858659      15.51386089      12.77205603
H        0.63628474      17.06882956      14.26878005
H        1.90857245      14.26827299      14.00770415
6
Lattice="2.5445879 0.0 0.0 -0.0 30.0 0.0 0.0 0.0 30.0" Properties=species:S:1:pos:R:3 pbc="T T T"
C        0.63615000      15.97237000      14.42610000
C        1.90844000      15.36471000      13.85026000
H        0.63615000      15.84859000      15.51677000
H        1.90844000      15.48848000      12.75960000
H        0.63615000      17.05483000      14.24391000
H        1.90844000      14.28225000      14.03246000
6
Lattice="2.5445879 0.0 0.0 -0.0 30.0 0.0 0.0 0.0 30.0" Properties=species:S:1:pos:R:3 pbc="T T T"
C        0.63617480      15.96328594      14.43553911
C        1.90846256      15.37379381      13.84082876
H        0.63599807      15.87399304      15.52923279
H        1.90829341      15.46309911      12.74714397
H        0.63601526      17.04083044      14.21903995
H        1.90830755      14.29622701      14.05721585
6
Lattice="2.5445879 0.0 0.0 -0.0 30.0 0.0 0.0 0.0 30.0" Properties=species:S:1:pos:R:3 pbc="T T T"
C        0.63619960      15.95420189      14.44497822
C        1.90848511      15.38287763      13.83139753
H        0.63584615      15.89939607      15.54169559
H        1.90814683      15.43771822      12.73468795
H        0.63588052      17.02683088      14.19416990
H        1.90817510      14.31020401      14.08197171
6
Lattice="2.5445879 0.0 0.0 -0.0 30.0 0.0 0.0 0.0 30.0" Properties=species:S:1:pos:R:3 pbc="T T T"
C        0.63622440      15.94511783      14.45441732
C        1.90850767      15.39196144      13.82196629
H        0.63569422      15.92479911      15.55415838
H        1.90800024      15.41233734      12.72223192
H        0.63574577      17.01283133      14.16929986
H        1.90804265      14.32418102      14.10672756
6
Lattice="2.5445879 0.0 0.0 -0.0 30.0 0.0 0.0 0.0 30.0" Properties=species:S:1:pos:R:3 pbc="T T T"
C        0.63624920      15.93603377      14.46385643
C        1.90853023      15.40104526      13.81253506
H        0.63554230      15.95020214      15.56662118
H        1.90785365      15.38695645      12.70977590
H        0.63561103      16.99883177      14.14442981
H        1.90791020      14.33815802      14.13148342
6
Lattice="2.5445879 0.0 0.0 -0.0 30.0 0.0 0.0 0.0 30.0" Properties=species:S:1:pos:R:3 pbc="T T T"
C        0.63627400      15.92694972      14.47329554
C        1.90855279      15.41012907      13.80310382
H        0.63539037      15.97560518      15.57908397
H        1.90770707      15.36157556      12.69731987
H        0.63547629      16.98483221      14.11955976
H        1.90777775      14.35213503      14.15623927
6
Lattice="2.5445879 0.0 0.0 -0.0 30.0 0.0 0.0 0.0 30.0" Properties=species:S:1:pos:R:3 pbc="T T T"
C        0.63629880      15.91786566      14.48273465
C        1.90857534      15.41921288      13.79367258
H        0.63523844      16.00100821      15.59154676
H        1.90756048      15.33619467      12.68486385
H        0.63534155      16.97083265      14.09468971
H        1.90764530      14.36611203      14.18099513
6
Lattice="2.5445879 0.0 0.0 -0.0 30.0 0.0 0.0 0.0 30.0" Properties=species:S:1:pos:R:3 pbc="T T T"
C        0.63632360      15.90878160      14.49217375
C        1.90859790      15.42829670      13.78424135
H        0.63508652      16.02641125      15.60400956
H        1.90741389      15.31081378      12.67240782
H        0.63520681      16.95683310      14.06981966
H        1.90751285      14.38008904      14.20575098
6
Lattice="2.5445879 0.0 0.0 -0.0 30.0 0.0 0.0 0.0 30.0" Properties=species:S:1:pos:R:3 pbc="T T T"
C        0.63629880      15.91786566      14.48273465
C        1.90857534      15.41921288      13.79367258
H        0.63523844      16.00100821      15.59154676
H        1.90756048      15.33619467      12.68486385
H        0.63534155      16.97083265      14.09468971
H        1.90764530      14.36611203      14.18099513
6
Lattice="2.5445879 0.0 0.0 -0.0 30.0 0.0 0.0 0.0 30.0" Properties=species:S:1:pos:R:3 pbc="T T T"
C        0.63627400      15.92694972      14.47329554
C        1.90855279      15.41012907      13.80310382
H        0.63539037      15.97560518      15.57908397
H        1.90770707      15.36157556      12.69731987
H        0.63547629      16.98483221      14.11955976
H        1.90777775      14.35213503      14.15623927
6
Lattice="2.5445879 0.0 0.0 -0.0 30.0 0.0 0.0 0.0 30.0" Properties=species:S:1:pos:R:3 pbc="T T T"
C        0.63624920      15.93603377      14.46385643
C        1.90853023      15.40104526      13.81253506
H        0.63554230      15.95020214      15.56662118
H        1.90785365      15.38695645      12.70977590
H        0.63561103      16.99883177      14.14442981
H        1.90791020      14.33815802      14.13148342
6
Lattice="2.5445879 0.0 0.0 -0.0 30.0 0.0 0.0 0.0 30.0" Properties=species:S:1:pos:R:3 pbc="T T T"
C        0.63622440      15.94511783      14.45441732
C        1.90850767      15.39196144      13.82196629
H        0.63569422      15.92479911      15.55415838
H        1.90800024      15.41233734      12.72223192
H        0.63574577      17.01283133      14.16929986
H        1.90804265      14.32418102      14.10672756
6
Lattice="2.5445879 0.0 0.0 -0.0 30.0 0.0 0.0 0.0 30.0" Properties=species:S:1:pos:R:3 pbc="T T T"
C        0.63619960      15.95420189      14.44497822
C        1.90848511      15.38287763      13.83139753
H        0.63584615      15.89939607      15.54169559
H        1.90814683      15.43771822      12.73468795
H        0.63588052      17.02683088      14.19416990
H        1.90817510      14.31020401      14.08197171
6
Lattice="2.5445879 0.0 0.0 -0.0 30.0 0.0 0.0 0.0 30.0" Properties=species:S:1:pos:R:3 pbc="T T T"
C        0.63617480      15.96328594      14.43553911
C        1.90846256      15.37379381      13.84082876
H        0.63599807      15.87399304      15.52923279
H        1.90829341      15.46309911      12.74714397
H        0.63601526      17.04083044      14.21903995
H        1.90830755      14.29622701      14.05721585
6
Lattice="2.5445879 0.0 0.0 -0.0 30.0 0.0 0.0 0.0 30.0" Properties=species:S:1:pos:R:3 pbc="T T T"
C        0.63615000      15.97237000      14.42610000
C        1.90844000      15.36471000      13.85026000
H        0.63615000      15.84859000      15.51677000
H        1.90844000      15.48848000      12.75960000
H        0.63615000      17.05483000      14.24391000
H        1.90844000      14.28225000      14.03246000
6
Lattice="2.5445879 0.0 0.0 -0.0 30.0 0.0 0.0 0.0 30.0" Properties=species:S:1:pos:R:3 pbc="T T T"
C        0.63612520      15.98145406      14.41666089
C        1.90841744      15.35562619      13.85969124
H        0.63630193      15.82318696      15.50430721
H        1.90858659      15.51386089      12.77205603
H        0.63628474      17.06882956      14.26878005
H        1.90857245      14.26827299      14.00770415
6
Lattice="2.5445879 0.0 0.0 -0.0 30.0 0.0 0.0 0.0 30.0" Properties=species:S:1:pos:R:3 pbc="T T T"
C        0.63610040      15.99053811      14.40722178
C        1.90839489      15.34654237      13.86912247
H        0.63645385      15.79778393      15.49184441
H        1.90873317      15.53924178      12.78451205
H        0.63641948      17.08282912      14.29365010
H        1.90870490      14.25429599      13.98294829
6
Lattice="2.5445879 0.0 0.0 -0.0 30.0 0.0 0.0 0.0 30.0" Properties=species:S:1:pos:R:3 pbc="T T T"
C        0.63607560      15.99962217      14.39778268
C        1.90837233      15.33745856      13.87855371
H        0.63660578      15.77238089      15.47938162
H        1.90887976      15.56462266      12.79696808
H        0.63655423      17.09682867      14.31852014
H        1.90883735      14.24031898      13.95819244
6
Lattice="2.5445879 0.0 0.0 -0.0 30.0 0.0 0.0 0.0 30.0" Properties=species:S:1:pos:R:3 pbc="T T T"
C        0.63605080      16.00870623      14.38834357
C        1.90834977      15.32837474      13.88798494
H        0.63675770      15.74697786      15.46691882
H        1.90902635      15.59000355      12.80942410
H        0.63668897      17.11082823      14.34339019
H        1.90896980      14.22634198      13.93343658
6
Lattice="2.5445879 0.0 0.0 -0.0 30.0 0.0 0.0 0.0 30.0" Properties=species:S:1:pos:R:3 pbc="T T T"
C        0.63602600      16.01779028      14.37890446
C        1.90832721      15.31929093      13.89741618
H        0.63690963      15.72157482      15.45445603
H        1.90917293      15.61538444      12.82188013
H        0.63682371      17.12482779      14.36826024
H        1.90910225      14.21236497      13.90868073
6
Lattice="2.5445879 0.0 0.0 -0.0 30.0 0.0 0.0 0.0 30.0" Properties=species:S:1:pos:R:3 pbc="T T T"
C        0.63600120      16.02687434      14.36946535
C        1.90830466      15.31020712      13.90684742
H        0.63706156      15.69617179      15.44199324
H        1.90931952      15.64076533      12.83433615
H        0.63695845      17.13882735      14.39313029
H        1.90923470      14.19838797      13.88392487
