6
Lattice="2.5445879 0.0 0.0 -0.0 30.0 0.0 0.0 0.0 30.0" Properties=species:S:1:pos:R:3 pbc="T T T"
C        0.63613952      15.95937097      14.41381238
C        1.90844892      15.37799587      13.86283969
H        0.63617973      16.03398455      15.53333796
H        1.90844058      15.30003052      12.74285164
H        0.63616313      17.08128807      14.42790862
H        1.90842509      14.25540590      13.84521460
6
Lattice="2.5445879 0.0 0.0 -0.0 30.0 0.0 0.0 0.0 30.0" Properties=species:S:1:pos:R:3 pbc="T T T"
C        0.63614102      15.96122797      14.41556775
C        1.90844765      15.37609789      13.86104259
H        0.63617548      16.00749962      15.53097110
H        1.90844050      15.32695187      12.74524426
H        0.63616125      17.07750834      14.40162310
H        1.90842722      14.25924077      13.87196394
6
Lattice="2.5445879 0.0 0.0 -0.0 30.0 0.0 0.0 0.0 30.0" Properties=species:S:1:pos:R:3 pbc="T T T"
C        0.63614252      15.96308498      14.41732313
C        1.90844637      15.37419991      13.85924549
H        0.63617124      15.98101468      15.52860425
H        1.90844042      15.35387323      12.74763689
H        0.63615938      17.07372862      14.37533758
H        1.90842935      14.26307564      13.89871328
6
Lattice="2.5445879 0.0 0.0 -0.0 30.0 0.0 0.0 0.0 30.0" Properties=species:S:1:pos:R:3 pbc="T T T"
C        0.63614401      15.96494198      14.41907850
C        1.90844510      15.37230193      13.85744839
H        0.63616699      15.95452974      15.52623740
H        1.90844033      15.38079458      12.75002951
H        0.63615750      17.06994890      14.34905207
H        1.90843148      14.26691051      13.92546263
6
Lattice="2.5445879 0.0 0.0 -0.0 30.0 0.0 0.0 0.0 30.0" Properties=species:S:1:pos:R:3 pbc="T T T"
C        0.63614551      15.96679899      14.42083388
C        1.90844382      15.37040395      13.85565129
H        0.63616274      15.92804481      15.52387055
H        1.90844025      15.40771594      12.75242213
H        0.63615563      17.06616917      14.32276655
H        1.90843361      14.27074539      13.95221197
6
Lattice="2.5445879 0.0 0.0 -0.0 30.0 0.0 0.0 0.0 30.0" Properties=species:S:1:pos:R:3 pbc="T T T"
C        0.63614701      15.96865599      14.42258925
C        1.90844255      15.36850596      13.85385420
H        0.63615849      15.90155987      15.52150370
H        1.90844017      15.43463729      12.75481475
H        0.63615375      17.06238945      14.29648103
H        1.90843574      14.27458026      13.97896131
6
Lattice="2.5445879 0.0 0.0 -0.0 30.0 0.0 0.0 0.0 30.0" Properties=species:S:1:pos:R:3 pbc="T T T"
C        0.63614850      15.97051300      14.42434463
C        1.90844127      15.36660798      13.85205710
H        0.63615425      15.87507494      15.51913685
H        1.90844008      15.46155865      12.75720738
H        0.63615188      17.05860972      14.27019552
H        1.90843787      14.27841513      14.00571066
6
Lattice="2.5445879 0.0 0.0 -0.0 30.0 0.0 0.0 0.0 30.0" Properties=species:S:1:pos:R:3 pbc="T T T"
C        0.63615000      15.97237000      14.42610000
C        1.90844000      15.36471000      13.85026000
H        0.63615000      15.84859000      15.51677000
H        1.90844000      15.48848000      12.75960000
H        0.63615000      17.05483000      14.24391000
H        1.90844000      14.28225000      14.03246000
6
Lattice="2.5445879 0.0 0.0 -0.0 30.0 0.0 0.0 0.0 30.0" Properties=species:S:1:pos:R:3 pbc="T T T"
C        0.63615150      15.97422700      14.42785537
C        1.90843873      15.36281202      13.84846290
H        0.63614575      15.82210506      15.51440315
H        1.90843992      15.51540135      12.76199262
H        0.63614812      17.05105028      14.21762448
H        1.90844213      14.28608487      14.05920934
6
Lattice="2.5445879 0.0 0.0 -0.0 30.0 0.0 0.0 0.0 30.0" Properties=species:S:1:pos:R:3 pbc="T T T"
C        0.63615299      15.97608401      14.42961075
C        1.90843745      15.36091404      13.84666580
H        0.63614151      15.79562013      15.51203630
H        1.90843983      15.54232271      12.76438525
H        0.63614625      17.04727055      14.19133897
H        1.90844426      14.28991974      14.08595869
6
Lattice="2.5445879 0.0 0.0 -0.0 30.0 0.0 0.0 0.0 30.0" Properties=species:S:1:pos:R:3 pbc="T T T"
C        0.63615449      15.97794101      14.43136612
C        1.90843618      15.35901605      13.84486871
H        0.63613726      15.76913519      15.50966945
H        1.90843975      15.56924406      12.76677787
H        0.63614437      17.04349083      14.16505345
H        1.90844639      14.29375461      14.11270803
6
Lattice="2.5445879 0.0 0.0 -0.0 30.0 0.0 0.0 0.0 30.0" Properties=species:S:1:pos:R:3 pbc="T T T"
C        0.63615599      15.97979802      14.43312150
C        1.90843490      15.35711807      13.84307161
H        0.63613301      15.74265026      15.50730260
H        1.90843967      15.59616542      12.76917049
H        0.63614250      17.03971110      14.13876793
H        1.90844852      14.29758949      14.13945737
6
Lattice="2.5445879 0.0 0.0 -0.0 30.0 0.0 0.0 0.0 30.0" Properties=species:S:1:pos:R:3 pbc="T T T"
C        0.63615748      15.98165502      14.43487687
C        1.90843363      15.35522009      13.84127451
H        0.63612876      15.71616532      15.50493575
H        1.90843958      15.62308677      12.77156311
H        0.63614062      17.03593138      14.11248242
H        1.90845065      14.30142436      14.16620672
6
Lattice="2.5445879 0.0 0.0 -0.0 30.0 0.0 0.0 0.0 30.0" Properties=species:S:1:pos:R:3 pbc="T T T"
C        0.63615898      15.98351203      14.43663225
C        1.90843235      15.35332211      13.83947741
H        0.63612452      15.68968038      15.50256890
H        1.90843950      15.65000813      12.77395574
H        0.63613875      17.03215166      14.08619690
H        1.90845278      14.30525923      14.19295606
6
Lattice="2.5445879 0.0 0.0 -0.0 30.0 0.0 0.0 0.0 30.0" Properties=species:S:1:pos:R:3 pbc="T T T"
C        0.63616048      15.98536903      14.43838762
C        1.90843108      15.35142413      13.83768031
H        0.63612027      15.66319545      15.50020204
H        1.90843942      15.67692948      12.77634836
H        0.63613687      17.02837193      14.05991138
H        1.90845491      14.30909410      14.21970540
6
Lattice="2.5445879 0.0 0.0 -0.0 30.0 0.0 0.0 0.0 30.0" Properties=species:S:1:pos:R:3 pbc="T T T"
C        0.63615898      15.98351203      14.43663225
C        1.90843235      15.35332211      13.83947741
H        0.63612452      15.68968038      15.50256890
H        1.90843950      15.65000813      12.77395574
H        0.63613875      17.03215166      14.08619690
H        1.90845278      14.30525923      14.19295606
6
Lattice="2.5445879 0.0 0.0 -0.0 30.0 0.0 0.0 0.0 30.0" Properties=species:S:1:pos:R:3 pbc="T T T"
C        0.63615748      15.98165502      14.43487687
C        1.90843363      15.35522009      13.84127451
H        0.63612876      15.71616532      15.50493575
H        1.90843958      15.62308677      12.77156311
H        0.63614062      17.03593138      14.11248242
H        1.90845065      14.30142436      14.16620672
6
Lattice="2.5445879 0.0 0.0 -0.0 30.0 0.0 0.0 0.0 30.0" Properties=species:S:1:pos:R:3 pbc="T T T"
C        0.63615599      15.97979802      14.43312150
C        1.90843490      15.35711807      13.84307161
H        0.63613301      15.74265026      15.50730260
H        1.90843967      15.59616542      12.76917049
H        0.63614250      17.03971110      14.13876793
H        1.90844852      14.29758949      14.13945737
6
Lattice="2.5445879 0.0 0.0 -0.0 30.0 0.0 0.0 0.0 30.0" Properties=species:S:1:pos:R:3 pbc="T T T"
C        0.63615449      15.97794101      14.43136612
C        1.90843618      15.35901605      13.84486871
H        0.63613726      15.76913519      15.50966945
H        1.90843975      15.56924406      12.76677787
H        0.63614437      17.04349083      14.16505345
H        1.90844639      14.29375461      14.11270803
6
Lattice="2.5445879 0.0 0.0 -0.0 30.0 0.0 0.0 0.0 30.0" Properties=species:S:1:pos:R:3 pbc="T T T"
C        0.63615299      15.97608401      14.42961075
C        1.90843745      15.36091404      13.84666580
H        0.63614151      15.79562013      15.51203630
H        1.90843983      15.54232271      12.76438525
H        0.63614625      17.04727055      14.19133897
H        1.90844426      14.28991974      14.08595869
6
Lattice="2.5445879 0.0 0.0 -0.0 30.0 0.0 0.0 0.0 30.0" Properties=species:S:1:pos:R:3 pbc="T T T"
C        0.63615150      15.97422700      14.42785537
C        1.90843873      15.36281202      13.84846290
H        0.63614575      15.82210506      15.51440315
H        1.90843992      15.51540135      12.76199262
H        0.63614812      17.05105028      14.21762448
H        1.90844213      14.28608487      14.05920934
6
Lattice="2.5445879 0.0 0.0 -0.0 30.0 0.0 0.0 0.0 30.0" Properties=species:S:1:pos:R:3 pbc="T T T"
C        0.63615000      15.97237000      14.42610000
C        1.90844000      15.36471000      13.85026000
H        0.63615000      15.84859000      15.51677000
H        1.90844000      15.48848000      12.75960000
H        0.63615000      17.05483000      14.24391000
H        1.90844000      14.28225000      14.03246000
6
Lattice="2.5445879 0.0 0.0 -0.0 30.0 0.0 0.0 0.0 30.0" Properties=species:S:1:pos:R:3 pbc="T T T"
C        0.63614850      15.97051300      14.42434463
C        1.90844127      15.36660798      13.85205710
H        0.63615425      15.87507494      15.51913685
H        1.90844008      15.46155865      12.75720738
H        0.63615188      17.05860972      14.27019552
H        1.90843787      14.27841513      14.00571066
6
Lattice="2.5445879 0.0 0.0 -0.0 30.0 0.0 0.0 0.0 30.0" Properties=species:S:1:pos:R:3 pbc="T T T"
C        0.63614701      15.96865599      14.42258925
C        1.90844255      15.36850596      13.85385420
H        0.63615849      15.90155987      15.52150370
H        1.90844017      15.43463729      12.75481475
H        0.63615375      17.06238945      14.29648103
H        1.90843574      14.27458026      13.97896131
6
Lattice="2.5445879 0.0 0.0 -0.0 30.0 0.0 0.0 0.0 30.0" Properties=species:S:1:pos:R:3 pbc="T T T"
C        0.63614551      15.96679899      14.42083388
C        1.90844382      15.37040395      13.85565129
H        0.63616274      15.92804481      15.52387055
H        1.90844025      15.40771594      12.75242213
H        0.63615563      17.06616917      14.32276655
H        1.90843361      14.27074539      13.95221197
6
Lattice="2.5445879 0.0 0.0 -0.0 30.0 0.0 0.0 0.0 30.0" Properties=species:S:1:pos:R:3 pbc="T T T"
C        0.63614401      15.96494198      14.41907850
C        1.90844510      15.37230193      13.85744839
H        0.63616699      15.95452974      15.52623740
H        1.90844033      15.38079458      12.75002951
H        0.63615750      17.06994890      14.34905207
H        1.90843148      14.26691051      13.92546263
6
Lattice="2.5445879 0.0 0.0 -0.0 30.0 0.0 0.0 0.0 30.0" Properties=species:S:1:pos:R:3 pbc="T T T"
C        0.63614252      15.96308498      14.41732313
C        1.90844637      15.37419991      13.85924549
H        0.63617124      15.98101468      15.52860425
H        1.90844042      15.35387323      12.74763689
H        0.63615938      17.07372862      14.37533758
H        1.90842935      14.26307564      13.89871328
6
Lattice="2.5445879 0.0 0.0 -0.0 30.0 0.0 0.0 0.0 30.0" Properties=species:S:1:pos:R:3 pbc="T T T"
C        0.63614102      15.96122797      14.41556775
C        1.90844765      15.37609789      13.86104259
H        0.63617548      16.00749962      15.53097110
H        1.90844050      15.32695187      12.74524426
H        0.63616125      17.07750834      14.40162310
H        1.90842722      14.25924077      13.87196394
