6
Lattice="2.5445879 0.0 0.0 -0.0 30.0 0.0 0.0 0.0 30.0" Properties=species:S:1:pos:R:3 pbc="T T T"
C        0.63685855      15.97235176      14.42609594
C        1.90776047      15.36472851      13.85026305
H        0.85874509      15.84859781      15.51676135
H        2.12801756      15.48846483      12.75960479
H        0.41656540      17.05479031      14.24387779
H        1.68554155      14.28229508      14.03251196
6
Lattice="2.5445879 0.0 0.0 -0.0 30.0 0.0 0.0 0.0 30.0" Properties=species:S:1:pos:R:3 pbc="T T T"
C        0.63675733      15.97235436      14.42609652
C        1.90785755      15.36472587      13.85026261
H        0.82694579      15.84859669      15.51676258
H        2.09664934      15.48846700      12.75960411
H        0.44793463      17.05479598      14.24388239
H        1.71738418      14.28228864      14.03250454
6
Lattice="2.5445879 0.0 0.0 -0.0 30.0 0.0 0.0 0.0 30.0" Properties=species:S:1:pos:R:3 pbc="T T T"
C        0.63665611      15.97235697      14.42609710
C        1.90795462      15.36472322      13.85026218
H        0.79514649      15.84859558      15.51676382
H        2.06528112      15.48846917      12.75960342
H        0.47930386      17.05480165      14.24388699
H        1.74922682      14.28228220      14.03249712
6
Lattice="2.5445879 0.0 0.0 -0.0 30.0 0.0 0.0 0.0 30.0" Properties=species:S:1:pos:R:3 pbc="T T T"
C        0.63655488      15.97235957      14.42609768
C        1.90805170      15.36472058      13.85026174
H        0.76334719      15.84859446      15.51676505
H        2.03391289      15.48847133      12.75960274
H        0.51067309      17.05480732      14.24389159
H        1.78106946      14.28227576      14.03248969
6
Lattice="2.5445879 0.0 0.0 -0.0 30.0 0.0 0.0 0.0 30.0" Properties=species:S:1:pos:R:3 pbc="T T T"
C        0.63645366      15.97236218      14.42609826
C        1.90814877      15.36471793      13.85026131
H        0.73154789      15.84859335      15.51676629
H        2.00254467      15.48847350      12.75960205
H        0.54204232      17.05481299      14.24389620
H        1.81291209      14.28226932      14.03248227
6
Lattice="2.5445879 0.0 0.0 -0.0 30.0 0.0 0.0 0.0 30.0" Properties=species:S:1:pos:R:3 pbc="T T T"
C        0.63635244      15.97236479      14.42609884
C        1.90824585      15.36471529      13.85026087
H        0.69974860      15.84859223      15.51676753
H        1.97117645      15.48847567      12.75960137
H        0.57341154      17.05481866      14.24390080
H        1.84475473      14.28226288      14.03247485
6
Lattice="2.5445879 0.0 0.0 -0.0 30.0 0.0 0.0 0.0 30.0" Properties=species:S:1:pos:R:3 pbc="T T T"
C        0.63625122      15.97236739      14.42609942
C        1.90834292      15.36471264      13.85026044
H        0.66794930      15.84859112      15.51676876
H        1.93980822      15.48847783      12.75960068
H        0.60478077      17.05482433      14.24390540
H        1.87659736      14.28225644      14.03246742
6
Lattice="2.5445879 0.0 0.0 -0.0 30.0 0.0 0.0 0.0 30.0" Properties=species:S:1:pos:R:3 pbc="T T T"
C        0.63615000      15.97237000      14.42610000
C        1.90844000      15.36471000      13.85026000
H        0.63615000      15.84859000      15.51677000
H        1.90844000      15.48848000      12.75960000
H        0.63615000      17.05483000      14.24391000
H        1.90844000      14.28225000      14.03246000
6
Lattice="2.5445879 0.0 0.0 -0.0 30.0 0.0 0.0 0.0 30.0" Properties=species:S:1:pos:R:3 pbc="T T T"
C        0.63604878      15.97237261      14.42610058
C        1.90853708      15.36470736      13.85025956
H        0.60435070      15.84858888      15.51677124
H        1.87707178      15.48848217      12.75959932
H        0.66751923      17.05483567      14.24391460
H        1.94028264      14.28224356      14.03245258
6
Lattice="2.5445879 0.0 0.0 -0.0 30.0 0.0 0.0 0.0 30.0" Properties=species:S:1:pos:R:3 pbc="T T T"
C        0.63594756      15.97237521      14.42610116
C        1.90863415      15.36470471      13.85025913
H        0.57255140      15.84858777      15.51677247
H        1.84570355      15.48848433      12.75959863
H        0.69888846      17.05484134      14.24391920
H        1.97212527      14.28223712      14.03244515
6
Lattice="2.5445879 0.0 0.0 -0.0 30.0 0.0 0.0 0.0 30.0" Properties=species:S:1:pos:R:3 pbc="T T T"
C        0.63584634      15.97237782      14.42610174
C        1.90873123      15.36470207      13.85025869
H        0.54075211      15.84858665      15.51677371
H        1.81433533      15.48848650      12.75959795
H        0.73025768      17.05484701      14.24392380
H        2.00396791      14.28223068      14.03243773
6
Lattice="2.5445879 0.0 0.0 -0.0 30.0 0.0 0.0 0.0 30.0" Properties=species:S:1:pos:R:3 pbc="T T T"
C        0.63574512      15.97238043      14.42610232
C        1.90882830      15.36469942      13.85025826
H        0.50895281      15.84858554      15.51677495
H        1.78296711      15.48848867      12.75959726
H        0.76162691      17.05485268      14.24392841
H        2.03581054      14.28222424      14.03243031
6
Lattice="2.5445879 0.0 0.0 -0.0 30.0 0.0 0.0 0.0 30.0" Properties=species:S:1:pos:R:3 pbc="T T T"
C        0.63564389      15.97238303      14.42610290
C        1.90892538      15.36469678      13.85025782
H        0.47715351      15.84858442      15.51677618
H        1.75159888      15.48849083      12.75959658
H        0.79299614      17.05485835      14.24393301
H        2.06765318      14.28221780      14.03242288
6
Lattice="2.5445879 0.0 0.0 -0.0 30.0 0.0 0.0 0.0 30.0" Properties=species:S:1:pos:R:3 pbc="T T T"
C        0.63554267      15.97238564      14.42610348
C        1.90902245      15.36469413      13.85025739
H        0.44535421      15.84858331      15.51677742
H        1.72023066      15.48849300      12.75959589
H        0.82436537      17.05486402      14.24393761
H        2.09949582      14.28221136      14.03241546
6
Lattice="2.5445879 0.0 0.0 -0.0 30.0 0.0 0.0 0.0 30.0" Properties=species:S:1:pos:R:3 pbc="T T T"
C        0.63544145      15.97238824      14.42610406
C        1.90911953      15.36469149      13.85025695
H        0.41355491      15.84858219      15.51677865
H        1.68886244      15.48849517      12.75959521
H        0.85573460      17.05486969      14.24394221
H        2.13133845      14.28220492      14.03240804
6
Lattice="2.5445879 0.0 0.0 -0.0 30.0 0.0 0.0 0.0 30.0" Properties=species:S:1:pos:R:3 pbc="T T T"
C        0.63554267      15.97238564      14.42610348
C        1.90902245      15.36469413      13.85025739
H        0.44535421      15.84858331      15.51677742
H        1.72023066      15.48849300      12.75959589
H        0.82436537      17.05486402      14.24393761
H        2.09949582      14.28221136      14.03241546
6
Lattice="2.5445879 0.0 0.0 -0.0 30.0 0.0 0.0 0.0 30.0" Properties=species:S:1:pos:R:3 pbc="T T T"
C        0.63564389      15.97238303      14.42610290
C        1.90892538      15.36469678      13.85025782
H        0.47715351      15.84858442      15.51677618
H        1.75159888      15.48849083      12.75959658
H        0.79299614      17.05485835      14.24393301
H        2.06765318      14.28221780      14.03242288
6
Lattice="2.5445879 0.0 0.0 -0.0 30.0 0.0 0.0 0.0 30.0" Properties=species:S:1:pos:R:3 pbc="T T T"
C        0.63574512      15.97238043      14.42610232
C        1.90882830      15.36469942      13.85025826
H        0.50895281      15.84858554      15.51677495
H        1.78296711      15.48848867      12.75959726
H        0.76162691      17.05485268      14.24392841
H        2.03581054      14.28222424      14.03243031
6
Lattice="2.5445879 0.0 0.0 -0.0 30.0 0.0 0.0 0.0 30.0" Properties=species:S:1:pos:R:3 pbc="T T T"
C        0.63584634      15.97237782      14.42610174
C        1.90873123      15.36470207      13.85025869
H        0.54075211      15.84858665      15.51677371
H        1.81433533      15.48848650      12.75959795
H        0.73025768      17.05484701      14.24392380
H        2.00396791      14.28223068      14.03243773
6
Lattice="2.5445879 0.0 0.0 -0.0 30.0 0.0 0.0 0.0 30.0" Properties=species:S:1:pos:R:3 pbc="T T T"
C        0.63594756      15.97237521      14.42610116
C        1.90863415      15.36470471      13.85025913
H        0.57255140      15.84858777      15.51677247
H        1.84570355      15.48848433      12.75959863
H        0.69888846      17.05484134      14.24391920
H        1.97212527      14.28223712      14.03244515
6
Lattice="2.5445879 0.0 0.0 -0.0 30.0 0.0 0.0 0.0 30.0" Properties=species:S:1:pos:R:3 pbc="T T T"
C        0.63604878      15.97237261      14.42610058
C        1.90853708      15.36470736      13.85025956
H        0.60435070      15.84858888      15.51677124
H        1.87707178      15.48848217      12.75959932
H        0.66751923      17.05483567      14.24391460
H        1.94028264      14.28224356      14.03245258
6
Lattice="2.5445879 0.0 0.0 -0.0 30.0 0.0 0.0 0.0 30.0" Properties=species:S:1:pos:R:3 pbc="T T T"
C        0.63615000      15.97237000      14.42610000
C        1.90844000      15.36471000      13.85026000
H        0.63615000      15.84859000      15.51677000
H        1.90844000      15.48848000      12.75960000
H        0.63615000      17.05483000      14.24391000
H        1.90844000      14.28225000      14.03246000
6
Lattice="2.5445879 0.0 0.0 -0.0 30.0 0.0 0.0 0.0 30.0" Properties=species:S:1:pos:R:3 pbc="T T T"
C        0.63625122      15.97236739      14.42609942
C        1.90834292      15.36471264      13.85026044
H        0.66794930      15.84859112      15.51676876
H        1.93980822      15.48847783      12.75960068
H        0.60478077      17.05482433      14.24390540
H        1.87659736      14.28225644      14.03246742
6
Lattice="2.5445879 0.0 0.0 -0.0 30.0 0.0 0.0 0.0 30.0" Properties=species:S:1:pos:R:3 pbc="T T T"
C        0.63635244      15.97236479      14.42609884
C        1.90824585      15.36471529      13.85026087
H        0.69974860      15.84859223      15.51676753
H        1.97117645      15.48847567      12.75960137
H        0.57341154      17.05481866      14.24390080
H        1.84475473      14.28226288      14.03247485
6
Lattice="2.5445879 0.0 0.0 -0.0 30.0 0.0 0.0 0.0 30.0" Properties=species:S:1:pos:R:3 pbc="T T T"
C        0.63645366      15.97236218      14.42609826
C        1.90814877      15.36471793      13.85026131
H        0.73154789      15.84859335      15.51676629
H        2.00254467      15.48847350      12.75960205
H        0.54204232      17.05481299      14.24389620
H        1.81291209      14.28226932      14.03248227
6
Lattice="2.5445879 0.0 0.0 -0.0 30.0 0.0 0.0 0.0 30.0" Properties=species:S:1:pos:R:3 pbc="T T T"
C        0.63655488      15.97235957      14.42609768
C        1.90805170      15.36472058      13.85026174
H        0.76334719      15.84859446      15.51676505
H        2.03391289      15.48847133      12.75960274
H        0.51067309      17.05480732      14.24389159
H        1.78106946      14.28227576      14.03248969
6
Lattice="2.5445879 0.0 0.0 -0.0 30.0 0.0 0.0 0.0 30.0" Properties=species:S:1:pos:R:3 pbc="T T T"
C        0.63665611      15.97235697      14.42609710
C        1.90795462      15.36472322      13.85026218
H        0.79514649      15.84859558      15.51676382
H        2.06528112      15.48846917      12.75960342
H        0.47930386      17.05480165      14.24388699
H        1.74922682      14.28228220      14.03249712
6
Lattice="2.5445879 0.0 0.0 -0.0 30.0 0.0 0.0 0.0 30.0" Properties=species:S:1:pos:R:3 pbc="T T T"
C        0.63675733      15.97235436      14.42609652
C        1.90785755      15.36472587      13.85026261
H        0.82694579      15.84859669      15.51676258
H        2.09664934      15.48846700      12.75960411
H        0.44793463      17.05479598      14.24388239
H        1.71738418      14.28228864      14.03250454
