6
Lattice="2.5445879 0.0 0.0 -0.0 30.0 0.0 0.0 0.0 30.0" Properties=species:S:1:pos:R:3:forces:R:3 energy=-34.74507702 pbc="T T T"
C        0.54846655      15.95580756      14.38121354       0.00015300       0.00340000       0.00285300
C        1.82075388      15.34831386      13.80518511       0.00056900      -0.00327900      -0.00192400
H        0.54852228      15.83166972      15.47187819      -0.00022600       0.00478900      -0.02418600
H        1.82081358      15.47238705      12.71452596      -0.00016400      -0.00512100       0.02365900
H        0.54852333      17.03837144      14.19941419      -0.00021400      -0.02428000       0.00581800
H        1.82079769      14.26576466      13.98712496      -0.00011800       0.02449200      -0.00622000
