6
Lattice="2.5445879 0.0 0.0 -0.0 30.0 0.0 0.0 0.0 30.0" Properties=species:S:1:pos:R:3:forces:R:3 energy=-34.74181913 pbc="T T T"
C        0.63888801      15.97237360      14.42607641      -0.17211300       0.00875100       0.00959900
C        1.91118389      15.36470688      13.85028343      -0.17211300      -0.00875100      -0.00959900
H        0.61979971      15.84854245      15.51674736       0.08608200       0.00540600      -0.02971200
H        1.89209635      15.48852149      12.75962228       0.08608200      -0.00540600       0.02971200
H        0.61982215      17.05484732      14.24394101       0.08603000      -0.02996600       0.00678700
H        1.89210093      14.28223340      14.03243130       0.08603000       0.02996600      -0.00678700
