6
Lattice="2.5445879 0.0 0.0 -0.0 30.0 0.0 0.0 0.0 30.0" Properties=species:S:1:pos:R:3:forces:R:3 energy=-34.73141011 pbc="T T T"
C        0.63645131      16.02243616      14.37647160      -0.00013200       0.06327600       0.05725500
C        1.90874041      15.32666488      13.89341902       0.00015200      -0.06690500      -0.05824400
H        0.63645628      16.06395394      15.48598207      -0.00005400      -0.02093900      -0.41901500
H        1.90872288      15.28446319      12.78386015       0.00010600       0.02286900       0.42153200
H        0.63644728      17.07735496      14.03002216       0.00003700      -0.40611900       0.12228500
H        1.90875990      14.27183011      14.24040249      -0.00010800       0.40781900      -0.12381400
