6
Lattice="2.5445879 0.0 0.0 -0.0 30.0 0.0 0.0 0.0 30.0" Properties=species:S:1:pos:R:3:forces:R:3 energy=-34.74437672 pbc="T T T"
C        0.63615262      15.97450987      14.42815292      -0.00035600      -0.12184700      -0.11702300
C        1.90844237      15.36256867      13.84821152      -0.00035600       0.12184700       0.11702300
H        0.63612847      15.85015486      15.51870781       0.00017100      -0.00306100      -0.03319800
H        1.90843753      15.48691699      12.75766592       0.00017100       0.00306100       0.03319800
H        0.63612855      17.05680687      14.24529806       0.00018500      -0.03353300      -0.00079300
H        1.90843098      14.28026355      14.03102933       0.00018500       0.03353300       0.00079300
