6
Lattice="2.5445879 0.0 0.0 -0.0 30.0 0.0 0.0 0.0 30.0" Properties=species:S:1:pos:R:3:forces:R:3 energy=-34.71879442 pbc="T T T"
C        0.63615623      15.96750357      14.43116045      -0.00030900       0.19092900      -0.06367900
C        1.90844075      15.35985599      13.85544514       0.00012700       0.05440100      -0.19535300
H        0.63616430      15.92446084      15.53049525      -0.00006900      -0.13499100      -0.13793700
H        1.90841743      15.56438947      12.77345336       0.00014600      -0.18560400       0.07897800
H        0.63614788      17.03696581      14.16874242       0.00002200      -0.07008500       0.18960400
H        1.90842424      14.26440203      13.95744445       0.00008400       0.14535000       0.12838700
