6
Lattice="2.5445879 0.0 0.0 -0.0 30.0 0.0 0.0 0.0 30.0" Properties=species:S:1:pos:R:3:forces:R:3 energy=-34.74444673 pbc="T T T"
C        0.63614998      15.97264946      14.42581079       0.00000000      -0.11112200       0.12117900
C        1.90844002      15.36498383      13.84996786      -0.00000000      -0.11509700       0.11715900
H        0.63614980      15.84827475      15.51972593       0.00000000       0.01565300      -0.12687900
H        1.90844026      15.48815691      12.76260528      -0.00000000       0.00588400      -0.07841400
H        0.63614998      17.05181502      14.24440041       0.00000000       0.07861700      -0.01038200
H        1.90844004      14.27931119      14.03293559       0.00000000       0.12606600      -0.02266300
