6
Lattice="2.5445879 0.0 0.0 -0.0 30.0 0.0 0.0 0.0 30.0" Properties=species:S:1:pos:R:3:forces:R:3 energy=-34.74504421 pbc="T T T"
C        0.62768531      15.88854437      14.47119232      -0.00000000       0.00758500       0.00732800
C        1.89997495      15.27493468      13.90173738      -0.00000000      -0.00758500      -0.00732800
H        0.62769029      15.77617275      15.56321960       0.00000000       0.00497800      -0.02957900
H        1.89997939      15.38751871      12.80973788       0.00000000      -0.00497800       0.02957900
H        0.62769046      16.96914999      14.27762435       0.00000000      -0.03035300       0.00694100
H        1.89998018      14.19425136      14.09502189       0.00000000       0.03035300      -0.00694100
