6
Lattice="2.5445879 0.0 0.0 -0.0 30.0 0.0 0.0 0.0 30.0" Properties=species:S:1:pos:R:3:forces:R:3 energy=-34.73621325 pbc="T T T"
C        0.63614239      15.97236846      14.42609824       0.00047500       0.01109900       0.01003700
C        1.90844591      15.36471088      13.85026188      -0.00033900      -0.01075600      -0.00983100
H        0.60980593      15.84859422      15.51676626       0.16993400       0.00598300      -0.02792900
H        1.93477925      15.48848498      12.75960043      -0.16992200      -0.00649100       0.02759500
H        0.66253079      17.05482679      14.24390933      -0.17021700      -0.02765700       0.00785400
H        1.88208953      14.28225194      14.03246216       0.17006800       0.02782200      -0.00772700
