6
Lattice="2.5445879 0.0 0.0 -0.0 30.0 0.0 0.0 0.0 30.0" Properties=species:S:1:pos:R:3:forces:R:3 energy=-34.74428143 pbc="T T T"
C        0.63614495      15.97421791      14.42417986       0.00012700      -0.11421900       0.12392800
C        1.90843541      15.36286214      13.85217854       0.00012700       0.11421900      -0.12392800
H        0.63618091      15.84342242      15.51423477      -0.00007000       0.03235700      -0.01058100
H        1.90846982      15.49364307      12.76213385      -0.00007000      -0.03235700       0.01058100
H        0.63617741      17.05767784      14.24896916      -0.00005800      -0.03933200      -0.02050000
H        1.90846694      14.27940675      14.02742407      -0.00005800       0.03933200       0.02050000
