6
Lattice="2.5445879 0.0 0.0 -0.0 30.0 0.0 0.0 0.0 30.0" Properties=species:S:1:pos:R:3:forces:R:3 energy=-34.73176597 pbc="T T T"
C        0.63584869      15.92230384      14.47572840      -0.00009700       0.06362300       0.06156400
C        1.90813959      15.40275512      13.80710098       0.00007300      -0.06413200      -0.06446300
H        0.63584372      15.63322606      15.54755793       0.00004500       0.09822700      -0.40570100
H        1.90815712      15.69249681      12.73533985      -0.00009500      -0.10004200       0.40812300
H        0.63585272      17.03230504      14.45779784      -0.00004200      -0.41525500       0.00021800
H        1.90812010      14.29266989      13.82451751       0.00011600       0.41757900       0.00026000
