6
Lattice="2.5445879 0.0 0.0 -0.0 30.0 0.0 0.0 0.0 30.0" Properties=species:S:1:pos:R:3:forces:R:3 energy=-34.74449486 pbc="T T T"
C        0.63615002      15.97209054      14.42638921       0.00000000       0.11560800      -0.11768200
C        1.90843998      15.36443617      13.85055214      -0.00000000       0.11121700      -0.12009300
H        0.63615020      15.84890525      15.51381407       0.00000000      -0.00640600       0.07943400
H        1.90843974      15.48880309      12.75659472      -0.00000000      -0.01598100       0.12497800
H        0.63615002      17.05784498      14.24341959       0.00000000      -0.12542500       0.02281600
H        1.90843996      14.28518881      14.03198441      -0.00000000      -0.07901400       0.01054700
