6
Lattice="2.5445879 0.0 0.0 -0.0 30.0 0.0 0.0 0.0 30.0" Properties=species:S:1:pos:R:3:forces:R:3 energy=-34.73181714 pbc="T T T"
C        0.63602336      15.97237326      14.42610073       0.00627400       0.02234500       0.02106400
C        1.90856145      15.36470669      13.85025946      -0.00596500      -0.02234000      -0.02057200
H        0.59636590      15.84858860      15.51677155       0.16901300       0.00947400      -0.03815100
H        1.86919522      15.48848271      12.75959914       0.16678700      -0.00988000       0.03757700
H        0.67539603      17.05483709      14.24391576      -0.16674800      -0.03750400       0.01175500
H        1.94827832      14.28224194      14.03245071      -0.16936100       0.03790600      -0.01167300
