6
Lattice="2.5445879 0.0 0.0 -0.0 30.0 0.0 0.0 0.0 30.0" Properties=species:S:1:pos:R:3:forces:R:3 energy=-34.73950751 pbc="T T T"
C        0.63615100      15.97361424      14.42727614       0.00000000      -0.11476100      -0.10881800
C        1.90843915      15.36343831      13.84905590      -0.00000000       0.11760200       0.11170200
H        0.63614715      15.83084447      15.51518415       0.00000000       0.14804000      -0.01320900
H        1.90843994      15.50651794      12.76120311       0.00000000      -0.15084300       0.01269200
H        0.63614874      17.05229750      14.22629809       0.00000000      -0.00519100       0.14869600
H        1.90844143      14.28481945      14.05038269       0.00000000       0.00515400      -0.15106300
