6
Lattice="2.5445879 0.0 0.0 -0.0 30.0 0.0 0.0 0.0 30.0" Properties=species:S:1:pos:R:3:forces:R:3 energy=-34.73180766 pbc="T T T"
C        0.63627664      15.97236674      14.42609927      -0.00655000       0.02273100       0.02113000
C        1.90831855      15.36471331      13.85026054       0.00623800      -0.02267300      -0.02062600
H        0.67593410      15.84859140      15.51676845      -0.16910900       0.00948900      -0.03848200
H        1.94768478      15.48847729      12.75960086      -0.16674400      -0.00989800       0.03792700
H        0.59690397      17.05482291      14.24390424       0.16675900      -0.03778800       0.01186100
H        1.86860168      14.28225806      14.03246929       0.16940600       0.03813900      -0.01181100
