6
Lattice="2.5445879 0.0 0.0 -0.0 30.0 0.0 0.0 0.0 30.0" Properties=species:S:1:pos:R:3:forces:R:3 energy=-34.74474703 pbc="T T T"
C        0.63614738      15.97023013      14.42404708       0.00008800       0.12783900       0.12195600
C        1.90843763      15.36685133      13.85230848       0.00020300      -0.12731200      -0.12138600
H        0.63617153      15.84702514      15.51483219      -0.00012800       0.01219500      -0.01356800
H        1.90844247      15.49004301      12.76153408      -0.00000400      -0.01279600       0.01307000
H        0.63617145      17.05285313      14.24252194      -0.00011900      -0.01308700       0.01289600
H        1.90844902      14.28423645      14.03389067      -0.00004000       0.01316100      -0.01296700
