6
Lattice="2.5445879 0.0 0.0 -0.0 30.0 0.0 0.0 0.0 30.0" Properties=species:S:1:pos:R:3:forces:R:3 energy=-34.73975644 pbc="T T T"
C        0.63614900      15.97112576      14.42492386      -0.00000000       0.12349200       0.11633100
C        1.90844085      15.36598169      13.85146410      -0.00000000      -0.12592800      -0.11884200
H        0.63615285      15.86633553      15.51835585       0.00000000      -0.14013300      -0.03804900
H        1.90844006      15.47044206      12.75799689      -0.00000000       0.14209500       0.03783700
H        0.63615126      17.05736250      14.26152191      -0.00000000      -0.04545100      -0.13736800
H        1.90843857      14.27968055      14.01453731       0.00000000       0.04592600       0.14009200
