6
Lattice="2.5445879 0.0 0.0 -0.0 30.0 0.0 0.0 0.0 30.0" Properties=species:S:1:pos:R:3:forces:R:3 energy=-34.74353634 pbc="T T T"
C        0.63950335      15.97237244      14.42610198      -0.17096900       0.00642100       0.00574700
C        1.90508770      15.36470784      13.85025770       0.17090900      -0.00599900      -0.00540300
H        0.64348124      15.84859040      15.51676850      -0.03138200       0.00493300      -0.02767100
H        1.90087170      15.48847583      12.75960178       0.03241200      -0.00536400       0.02710300
H        0.64371666      17.05482899      14.24391439      -0.03240400      -0.02734700       0.00672300
H        1.90110034      14.28225135      14.03245916       0.03143400       0.02735600      -0.00649900
