6
Lattice="2.5445879 0.0 0.0 -0.0 30.0 0.0 0.0 0.0 30.0" Properties=species:S:1:pos:R:3:forces:R:3 energy=-34.74431694 pbc="T T T"
C        0.63411433      15.97237174      14.42610184       0.17184800       0.00368200       0.00306300
C        1.91047495      15.36470854      13.85025827      -0.17184800      -0.00368200      -0.00306300
H        0.64161294      15.84858883      15.51677130      -0.03872500       0.00460700      -0.02422400
H        1.90297945      15.48847760      12.75959921       0.03872500      -0.00460700       0.02422400
H        0.64160375      17.05483098      14.24390890      -0.03865500      -0.02436700       0.00609300
H        1.90299261      14.28224913      14.03245930       0.03865500       0.02436700      -0.00609300
