6
Lattice="2.5445879 0.0 0.0 -0.0 30.0 0.0 0.0 0.0 30.0" Properties=species:S:1:pos:R:3:forces:R:3 energy=-34.74456838 pbc="T T T"
C        0.72383345      15.98893244      14.47098646      -0.00037900       0.01334400       0.01335900
C        1.99612612      15.38110614      13.89533489      -0.00037900      -0.01334400      -0.01335900
H        0.72377772      15.86551028      15.56166181       0.00021700       0.00582500      -0.03653500
H        1.99606642      15.50457295      12.80467404       0.00021700      -0.00582500       0.03653500
H        0.72377667      17.07128856      14.28840581       0.00016200      -0.03572000       0.00788600
H        1.99608231      14.29873534      14.07779504       0.00016200       0.03572000      -0.00788600
