6
Lattice="2.5445879 0.0 0.0 -0.0 30.0 0.0 0.0 0.0 30.0" Properties=species:S:1:pos:R:3:forces:R:3 energy=-34.7438066 pbc="T T T"
C        0.63615002      15.97207608      14.42581718       0.00000000       0.11731300       0.11243600
C        1.90843998      15.36439468      13.84996147       0.00000000       0.12439500       0.11812700
H        0.63614956      15.84797553      15.52096956      -0.00000000       0.02473100      -0.16197600
H        1.90844041      15.48782925      12.76404733      -0.00000000       0.01687900      -0.12593400
H        0.63615003      17.05894266      14.24307877      -0.00000000      -0.15884900       0.03346800
H        1.90843996      14.28665973      14.03157115       0.00000000      -0.12447000       0.02387800
