6
Lattice="2.5445879 0.0 0.0 -0.0 30.0 0.0 0.0 0.0 30.0" Properties=species:S:1:pos:R:3:forces:R:3 energy=-34.74353844 pbc="T T T"
C        0.63279665      15.97236756      14.42609802       0.17073900       0.00683400       0.00610400
C        1.91179230      15.36471216      13.85026230      -0.17068300      -0.00635500      -0.00579200
H        0.62881876      15.84858960      15.51677150       0.03137200       0.00496000      -0.02780000
H        1.91600830      15.48848417      12.75959822      -0.03239700      -0.00541100       0.02720800
H        0.62858334      17.05483101      14.24390561       0.03238900      -0.02749700       0.00678700
H        1.91577966      14.28224865      14.03246084      -0.03141900       0.02746900      -0.00650800
