6
Lattice="2.5445879 0.0 0.0 -0.0 30.0 0.0 0.0 0.0 30.0" Properties=species:S:1:pos:R:3:forces:R:3 energy=-34.71933253 pbc="T T T"
C        0.63614377      15.97723643      14.42103955       0.00006800      -0.05841100       0.18770800
C        1.90843925      15.36956401      13.84507486       0.00011300      -0.18602500       0.07109300
H        0.63613570      15.77271916      15.50304475       0.00006300       0.18408900      -0.07514100
H        1.90846257      15.41257053      12.74574664      -0.00013100       0.13638100       0.13360700
H        0.63615212      17.07269419      14.31907758      -0.00003300      -0.14121100      -0.12884200
H        1.90845576      14.30009797      14.10747555      -0.00007900       0.06517600      -0.18842500
