6
Lattice="2.5445879 0.0 0.0 -0.0 30.0 0.0 0.0 0.0 30.0" Properties=species:S:1:pos:R:3:forces:R:3 energy=-34.74192485 pbc="T T T"
C        0.63614935      15.97113645      14.42493518       0.00000000       0.12815500       0.12069700
C        1.90844073      15.36348373      13.84909675      -0.00000000       0.11921700       0.11353100
H        0.63615221      15.86175123      15.51770392       0.00000000      -0.10667100      -0.03279600
H        1.90843574      15.50139079      12.76051065       0.00000000      -0.11354900       0.01695100
H        0.63614990      17.05646415      14.25698295       0.00000000      -0.03846800      -0.10423000
H        1.90843881      14.28385827      14.04530836       0.00000000       0.01131600      -0.11415300
