6
Lattice="2.5445879 0.0 0.0 -0.0 30.0 0.0 0.0 0.0 30.0" Properties=species:S:1:pos:R:3:forces:R:3 energy=-34.74339632 pbc="T T T"
C        0.63615037      15.97203777      14.42582961       0.00000000       0.13218400       0.10833100
C        1.90843964      15.36503156      13.85050285       0.00000000      -0.12764800      -0.09742000
H        0.63615258      15.84797440      15.52096519      -0.00000000       0.02519900      -0.16290000
H        1.90844068      15.48905033      12.75576891      -0.00000000      -0.02398300       0.15054400
H        0.63615246      17.05948017      14.24299353      -0.00000000      -0.17722100       0.03670800
H        1.90843989      14.27778393      14.03333967      -0.00000000       0.17146900      -0.03526300
