6
Lattice="2.5445879 0.0 0.0 -0.0 30.0 0.0 0.0 0.0 30.0" Properties=species:S:1:pos:R:3:forces:R:3 energy=-34.74142301 pbc="T T T"
C        0.63341199      15.97236640      14.42612359       0.17214900       0.01488000       0.01211500
C        1.90569611      15.36471312      13.85023657       0.17214900      -0.01488000      -0.01211500
H        0.65250029      15.84863755      15.51679264      -0.08610800       0.00581200      -0.03831800
H        1.92478365      15.48843851      12.75957772      -0.08610800      -0.00581200       0.03831800
H        0.65247785      17.05481268      14.24387899      -0.08604100      -0.03815100       0.00844200
H        1.92477907      14.28226660      14.03248870      -0.08604100       0.03815100      -0.00844200
