6
Lattice="2.5445879 0.0 0.0 -0.0 30.0 0.0 0.0 0.0 30.0" Properties=species:S:1:pos:R:3:forces:R:3 energy=-34.74505076 pbc="T T T"
C        0.68329979      15.92619697      14.35103030      -0.00024100       0.00300000       0.00224000
C        1.95559127      15.31835044      13.77540301      -0.00024100      -0.00300000      -0.00224000
H        0.68327004      15.80272104      15.44173865       0.00012300       0.00470300      -0.02361500
H        1.95555931      15.44170135      12.68468501       0.00012300      -0.00470300       0.02361500
H        0.68326799      17.00862884      14.16862913       0.00011800      -0.02420300       0.00569100
H        1.95556734      14.23594650      13.95809724       0.00011800       0.02420300      -0.00569100
