6
Lattice="2.5445879 0.0 0.0 -0.0 30.0 0.0 0.0 0.0 30.0" Properties=species:S:1:pos:R:3:forces:R:3 energy=-34.74424565 pbc="T T T"
C        0.63615002      15.97266006      14.42575950       0.00000000      -0.11401100       0.13474800
C        1.90843999      15.36441934      13.85060193      -0.00000000       0.11401100      -0.13474800
H        0.63615013      15.84820342      15.52050457      -0.00000000       0.01728800      -0.14536700
H        1.90843973      15.48886884      12.75584843      -0.00000000      -0.01728800       0.14536700
H        0.63615018      17.05160270      14.24440052      -0.00000000       0.08542600      -0.01047100
H        1.90844002      14.28548216      14.03196882      -0.00000000      -0.08542600       0.01047100
