6
Lattice="2.5445879 0.0 0.0 -0.0 30.0 0.0 0.0 0.0 30.0" Properties=species:S:1:pos:R:3:forces:R:3 energy=-34.74417955 pbc="T T T"
C        0.63614998      15.97207994      14.42644050      -0.00000000       0.11928800      -0.13142600
C        1.90844001      15.36500066      13.84991807      -0.00000000      -0.11928800       0.13142600
H        0.63614987      15.84897658      15.51303543       0.00000000      -0.00786300       0.09831900
H        1.90844027      15.48809116      12.76335157       0.00000000       0.00786300      -0.09831900
H        0.63614982      17.05805730      14.24341948       0.00000000      -0.13351800       0.02291900
H        1.90843998      14.27901784      14.03295118       0.00000000       0.13351800      -0.02291900
