6
Lattice="2.5445879 0.0 0.0 -0.0 30.0 0.0 0.0 0.0 30.0" Properties=species:S:1:pos:R:3:forces:R:3 energy=-34.74513894 pbc="T T T"
C        0.64461469      16.05619563      14.38100768      -0.00000000       0.00007200      -0.00066500
C        1.91690505      15.45448532      13.79878262      -0.00000000       0.00043500       0.00190800
H        0.64460971      15.92100725      15.47032040       0.00000000       0.00500200      -0.02293700
H        1.91690061      15.58944129      12.70946212      -0.00000000      -0.00429100       0.02209600
H        0.64460954      17.14051001      14.21019565       0.00000000      -0.02322300       0.00534400
H        1.91689982      14.37024864      13.96989811       0.00000000       0.02200500      -0.00574600
