6
Lattice="2.5445879 0.0 0.0 -0.0 30.0 0.0 0.0 0.0 30.0" Properties=species:S:1:pos:R:3:forces:R:3 energy=-34.74383952 pbc="T T T"
C        0.63614998      15.97266392      14.42638282       0.00000000      -0.11566100      -0.11181800
C        1.90844002      15.36502532      13.85055853       0.00000000      -0.12487700      -0.11787200
H        0.63615044      15.84920447      15.51257044      -0.00000000      -0.01616200       0.11821700
H        1.90843959      15.48913075      12.75515267      -0.00000000      -0.02628200       0.16841100
H        0.63614997      17.05071734      14.24474123      -0.00000000       0.11552200      -0.02189400
H        1.90844004      14.27784027      14.03334885      -0.00000000       0.16746000      -0.03504400
