6
Lattice="2.5445879 0.0 0.0 -0.0 30.0 0.0 0.0 0.0 30.0" Properties=species:S:1:pos:R:3:forces:R:3 energy=-34.74426829 pbc="T T T"
C        0.63614963      15.97270223      14.42637039      -0.00000000      -0.12944700      -0.10541700
C        1.90844036      15.36438844      13.85001715      -0.00000000       0.12532500       0.09452300
H        0.63614742      15.84920560      15.51257481       0.00000000      -0.01628200       0.11620600
H        1.90843932      15.48790967      12.76343109       0.00000000       0.01415000      -0.10411500
H        0.63614754      17.05017983      14.24482647       0.00000000       0.13197300      -0.02479300
H        1.90844011      14.28671607      14.03158033       0.00000000      -0.12571900       0.02359500
