6
Lattice="2.5445879 0.0 0.0 -0.0 30.0 0.0 0.0 0.0 30.0" Properties=species:S:1:pos:R:3:forces:R:3 energy=-34.74371571 pbc="T T T"
C        0.63615505      15.97052209      14.42802014      -0.00051700       0.12895600      -0.11108200
C        1.90844459      15.36655786      13.84834146      -0.00051700      -0.12895600       0.11108200
H        0.63611909      15.85375758      15.51930523       0.00027300      -0.02140200      -0.04961100
H        1.90841018      15.48331693      12.75706615       0.00027300       0.02140200       0.04961100
H        0.63612259      17.05198216      14.23885084       0.00024400      -0.02105700       0.03529500
H        1.90841306      14.28509325      14.03749593       0.00024400       0.02105700      -0.03529500
