6
Lattice="2.5445879 0.0 0.0 -0.0 30.0 0.0 0.0 0.0 30.0" Properties=species:S:1:pos:R:3:forces:R:3 energy=-34.7362144 pbc="T T T"
C        0.63615761      15.97237154      14.42610176      -0.00073000       0.01097400       0.00992600
C        1.90843409      15.36470912      13.85025812       0.00059600      -0.01071300      -0.00956300
H        0.66249407      15.84858578      15.51677374      -0.16997000       0.00605200      -0.02813200
H        1.88210075      15.48847502      12.75959957       0.16995400      -0.00641200       0.02758900
H        0.60976921      17.05483321      14.24391067       0.17020500      -0.02780400       0.00786000
H        1.93479047      14.28224806      14.03245784      -0.17005400       0.02790400      -0.00767900
