6
Lattice="2.5445879 0.0 0.0 -0.0 30.0 0.0 0.0 0.0 30.0" Properties=species:S:1:pos:R:3:forces:R:3 energy=-34.74202311 pbc="T T T"
C        0.63615065      15.97360355      14.42726482      -0.00000000      -0.12020200      -0.11397800
C        1.90843927      15.36593627      13.85142325       0.00000000      -0.12641700      -0.11955300
H        0.63614779      15.83542877      15.51583608      -0.00000000       0.11518900      -0.01661100
H        1.90844426      15.47556921      12.75868935      -0.00000000       0.10413500       0.03149900
H        0.63615010      17.05319585      14.23083705      -0.00000000      -0.01036200       0.11606500
H        1.90844119      14.28064173      14.01961164       0.00000000       0.03765800       0.10257700
