6
Lattice="2.5445879 0.0 0.0 -0.0 30.0 0.0 0.0 0.0 30.0" Properties=species:S:1:pos:R:3:forces:R:3 energy=-34.74510784 pbc="T T T"
C        0.58900021      16.01854303      14.50116970       0.00015400       0.00188200       0.00099600
C        1.86128873      15.41106956      13.92511699       0.00015400      -0.00188200      -0.00099600
H        0.58902996      15.89445896      15.59180135      -0.00007800       0.00391600      -0.02235000
H        1.86132069      15.53525865      12.83451499      -0.00007800      -0.00391600       0.02235000
H        0.58903201      17.10103116      14.31919087      -0.00007500      -0.02259500       0.00549100
H        1.86131266      14.32855350      14.10682276      -0.00007500       0.02259500      -0.00549100
