6
Lattice="2.5445879 0.0 0.0 -0.0 30.0 0.0 0.0 0.0 30.0" Properties=species:S:1:pos:R:3:forces:R:3 energy=-34.74431606 pbc="T T T"
C        0.63818567      15.97236826      14.42609816      -0.17209800       0.00398100       0.00339200
C        1.90640505      15.36471146      13.85026173       0.17209800      -0.00398100      -0.00339200
H        0.63068706      15.84859117      15.51676870       0.03871700       0.00463200      -0.02466000
H        1.91390055      15.48848240      12.75960079      -0.03871700      -0.00463200       0.02466000
H        0.63069625      17.05482902      14.24391110       0.03864500      -0.02479100       0.00612400
H        1.91388739      14.28225087      14.03246070      -0.03864500       0.02479100      -0.00612400
