6
Lattice="2.5445879 0.0 2e-16 -8e-16 30.0 8e-16 0.0 0.0 30.0" Properties=species:S:1:pos:R:3:momenta:R:3 pbc="T T T"
C        0.63614697      15.97237094      14.42610197       0.00000000       0.00000000       0.00000000
C        1.90844094      15.36470866      13.85026371       0.00000000       0.00000000       0.00000000
H        0.63614698      15.84859471      15.51676798       0.00000000       0.00000000       0.00000000
H        1.90844093      15.48848488      12.75959771       0.00000000       0.00000000       0.00000000
H        0.63614698      17.05482802      14.24390996       0.00000000       0.00000000       0.00000000
H        1.90844093      14.28225157      14.03245573       0.00000000       0.00000000       0.00000000
