6
Lattice="2.5445879 0.0 0.0 -0.0 30.0 0.0 0.0 0.0 30.0" Properties=species:S:1:pos:R:3:forces:R:3 energy=-34.74290794 pbc="T T T"
C        0.64615000      15.97237000      14.42610000      -0.37602900       0.00850000       0.00771600
C        1.90844000      15.36471000      13.85026000       0.28594900      -0.00699500      -0.00630200
H        0.63615000      15.84859000      15.51677000       0.03961200       0.00458600      -0.02605700
H        1.90844000      15.48848000      12.75960000       0.00542900      -0.00509000       0.02447600
H        0.63615000      17.05483000      14.24391000       0.03960800      -0.02573100       0.00630700
H        1.90844000      14.28225000      14.03246000       0.00543100       0.02473000      -0.00613900
