6
Lattice="2.5445879 0.0 0.0 -0.0 30.0 0.0 0.0 0.0 30.0" Properties=species:S:1:pos:R:3:forces:R:3 energy=-34.74299611 pbc="T T T"
C        0.62615000      15.97237000      14.42610000       0.37579500       0.00799900       0.00725800
C        1.90844000      15.36471000      13.85026000      -0.28572500      -0.00654100      -0.00583100
H        0.63615000      15.84859000      15.51677000      -0.03961100       0.00450200      -0.02576800
H        1.90844000      15.48848000      12.75960000      -0.00542500      -0.00503800       0.02419900
H        0.63615000      17.05483000      14.24391000      -0.03961200      -0.02541100       0.00621000
H        1.90844000      14.28225000      14.03246000      -0.00542200       0.02449000      -0.00606800
