6
Lattice="2.5445879 0.0 0.0 -0.0 30.0 0.0 0.0 0.0 30.0" Properties=species:S:1:pos:R:3:forces:R:3 energy=-34.74198791 pbc="T T T"
C        0.63615000      15.98237000      14.42610000       0.00000000      -0.55124200       0.01578600
C        1.90844000      15.36471000      13.85026000      -0.00000000       0.19250800       0.03956100
H        0.63615000      15.84859000      15.51677000       0.00000000       0.05604200      -0.05803900
H        1.90844000      15.48848000      12.75960000       0.00000000      -0.00672700       0.02206600
H        0.63615000      17.05483000      14.24391000       0.00000000       0.25590600      -0.04010600
H        1.90844000      14.28225000      14.03246000      -0.00000000       0.05351300       0.02073200
