6
Lattice="2.5445879 0.0 0.0 -0.0 30.0 0.0 0.0 0.0 30.0" Properties=species:S:1:pos:R:3:forces:R:3 energy=-34.74239819 pbc="T T T"
C        0.63615000      15.96237000      14.42610000       0.00000000       0.53735400      -0.00274600
C        1.90844000      15.36471000      13.85026000       0.00000000      -0.19674000      -0.04608800
H        0.63615000      15.84859000      15.51677000      -0.00000000      -0.04535400       0.00510300
H        1.90844000      15.48848000      12.75960000      -0.00000000      -0.00357100       0.02779200
H        0.63615000      17.05483000      14.24391000      -0.00000000      -0.28746900       0.04927500
H        1.90844000      14.28225000      14.03246000      -0.00000000      -0.00421900      -0.03333600
