6
Lattice="2.5445879 0.0 0.0 -0.0 30.0 0.0 0.0 0.0 30.0" Properties=species:S:1:pos:R:3:forces:R:3 energy=-34.74195491 pbc="T T T"
C        0.63615000      15.97237000      14.43610000       0.00000000       0.01546800      -0.55287700
C        1.90844000      15.36471000      13.85026000       0.00000000       0.03915600       0.18837200
H        0.63615000      15.84859000      15.51677000       0.00000000      -0.02930500       0.25984900
H        1.90844000      15.48848000      12.75960000      -0.00000000       0.02340600       0.05197100
H        0.63615000      17.05483000      14.24391000       0.00000000      -0.06948800       0.06188500
H        1.90844000      14.28225000      14.03246000      -0.00000000       0.02076300      -0.00920000
