6
Lattice="2.5445879 0.0 0.0 -0.0 30.0 0.0 0.0 0.0 30.0" Properties=species:S:1:pos:R:3:forces:R:3 energy=-34.74206447 pbc="T T T"
C        0.63615000      15.97237000      14.41610000       0.00000000      -0.00232800       0.53802500
C        1.90844000      15.36471000      13.85026000      -0.00000000      -0.04732300      -0.19248600
H        0.63615000      15.84859000      15.51677000       0.00000000       0.03628000      -0.29131700
H        1.90844000      15.48848000      12.75960000       0.00000000      -0.03397400      -0.00331400
H        0.63615000      17.05483000      14.24391000       0.00000000       0.01807100      -0.04756000
H        1.90844000      14.28225000      14.03246000       0.00000000       0.02927400      -0.00334800
