6
Lattice="2.5445879 0.0 0.0 -0.0 30.0 0.0 0.0 0.0 30.0" Properties=species:S:1:pos:R:3:forces:R:3 energy=-34.74297684 pbc="T T T"
C        0.63615000      15.97237000      14.42610000       0.28572100       0.00688500       0.00618400
C        1.91844000      15.36471000      13.85026000      -0.37576500      -0.00779200      -0.00701900
H        0.63615000      15.84859000      15.51677000       0.00542100       0.00458800      -0.02475200
H        1.90844000      15.48848000      12.75960000       0.03960200      -0.00497700       0.02541000
H        0.63615000      17.05483000      14.24391000       0.00542000      -0.02439300       0.00624800
H        1.90844000      14.28225000      14.03246000       0.03960200       0.02569000      -0.00607100
