6
Lattice="2.5445879 0.0 0.0 -0.0 30.0 0.0 0.0 0.0 30.0" Properties=species:S:1:pos:R:3:forces:R:3 energy=-34.74290272 pbc="T T T"
C        0.63615000      15.97237000      14.42610000      -0.28594600       0.00733700       0.00658500
C        1.89844000      15.36471000      13.85026000       0.37599700      -0.00819200      -0.00743800
H        0.63615000      15.84859000      15.51677000      -0.00542500       0.00466100      -0.02496000
H        1.90844000      15.48848000      12.75960000      -0.03960000      -0.00503400       0.02562000
H        0.63615000      17.05483000      14.24391000      -0.00542800      -0.02465100       0.00632000
H        1.90844000      14.28225000      14.03246000      -0.03959800       0.02587800      -0.00612700
