6
Lattice="2.5445879 0.0 0.0 -0.0 30.0 0.0 0.0 0.0 30.0" Properties=species:S:1:pos:R:3:forces:R:3 energy=-34.74204588 pbc="T T T"
C        0.63615000      15.97237000      14.42610000       0.00000000       0.19813500       0.04724800
C        1.90844000      15.37471000      13.85026000      -0.00000000      -0.53784900       0.00226400
H        0.63615000      15.84859000      15.51677000       0.00000000       0.00318800      -0.02787300
H        1.90844000      15.48848000      12.75960000       0.00000000       0.04482100      -0.00607800
H        0.63615000      17.05483000      14.24391000       0.00000000       0.00449200       0.03353200
H        1.90844000      14.28225000      14.03246000       0.00000000       0.28721300      -0.04909300
