6
Lattice="2.5445879 0.0 0.0 -0.0 30.0 0.0 0.0 0.0 30.0" Properties=species:S:1:pos:R:3:forces:R:3 energy=-34.74212697 pbc="T T T"
C        0.63615000      15.97237000      14.42610000      -0.00000000      -0.19263600      -0.04004500
C        1.90844000      15.35471000      13.85026000       0.00000000       0.55176800      -0.01482000
H        0.63615000      15.84859000      15.51677000      -0.00000000       0.00630300      -0.02178800
H        1.90844000      15.48848000      12.75960000      -0.00000000      -0.05628100       0.05688700
H        0.63615000      17.05483000      14.24391000      -0.00000000      -0.05279600      -0.02071300
H        1.90844000      14.28225000      14.03246000       0.00000000      -0.25635800       0.04047900
