6
Lattice="2.5445879 0.0 0.0 -0.0 30.0 0.0 0.0 0.0 30.0" Properties=species:S:1:pos:R:3:forces:R:3 energy=-34.74201197 pbc="T T T"
C        0.63615000      15.97237000      14.42610000      -0.00000000       0.04804100       0.19295500
C        1.90844000      15.36471000      13.86026000       0.00000000       0.00233100      -0.53779100
H        0.63615000      15.84859000      15.51677000      -0.00000000       0.03360000       0.00249500
H        1.90844000      15.48848000      12.75960000      -0.00000000      -0.03680800       0.29111100
H        0.63615000      17.05483000      14.24391000      -0.00000000      -0.02963400       0.00355500
H        1.90844000      14.28225000      14.03246000      -0.00000000      -0.01753000       0.04767400
