6
Lattice="2.5445879 0.0 0.0 -0.0 30.0 0.0 0.0 0.0 30.0" Properties=species:S:1:pos:R:3:forces:R:3 energy=-34.74199068 pbc="T T T"
C        0.63615000      15.97237000      14.42610000      -0.00000000      -0.03887400      -0.18812400
C        1.90844000      15.36471000      13.84026000      -0.00000000      -0.01511200       0.55316500
H        0.63615000      15.84859000      15.51677000       0.00000000      -0.02385300      -0.05239700
H        1.90844000      15.48848000      12.75960000       0.00000000       0.02888000      -0.26028700
H        0.63615000      17.05483000      14.24391000       0.00000000      -0.02061500       0.00935500
H        1.90844000      14.28225000      14.03246000       0.00000000       0.06957400      -0.06171300
