6
Lattice="2.5445879 0.0 0.0 -0.0 30.0 0.0 0.0 0.0 30.0" Properties=species:S:1:pos:R:3:forces:R:3 energy=-34.74444473 pbc="T T T"
C        0.63615000      15.97237000      14.42610000       0.03953900       0.00367800       0.00419100
C        1.90844000      15.36471000      13.85026000       0.00555500      -0.00348500      -0.00304500
H        0.64615000      15.84859000      15.51677000      -0.05255900       0.00491100      -0.02628500
H        1.90844000      15.48848000      12.75960000       0.00880900      -0.00521500       0.02494400
H        0.63615000      17.05483000      14.24391000       0.00091400      -0.02511700       0.00646400
H        1.90844000      14.28225000      14.03246000      -0.00225700       0.02522900      -0.00627000
