6
Lattice="2.5445879 0.0 0.0 -0.0 30.0 0.0 0.0 0.0 30.0" Properties=species:S:1:pos:R:3:forces:R:3 energy=-34.74445736 pbc="T T T"
C        0.63615000      15.97237000      14.42610000      -0.03977800       0.00362300       0.00416700
C        1.90844000      15.36471000      13.85026000      -0.00531800      -0.00342600      -0.00296100
H        0.62615000      15.84859000      15.51677000       0.05254600       0.00489400      -0.02616000
H        1.90844000      15.48848000      12.75960000      -0.00879600      -0.00519600       0.02474600
H        0.63615000      17.05483000      14.24391000      -0.00092400      -0.02495500       0.00644900
H        1.90844000      14.28225000      14.03246000       0.00226900       0.02506000      -0.00624100
