6
Lattice="2.5445879 0.0 0.0 -0.0 30.0 0.0 0.0 0.0 30.0" Properties=species:S:1:pos:R:3:forces:R:3 energy=-34.74454324 pbc="T T T"
C        0.63615000      15.97237000      14.42610000       0.00000000       0.05365600      -0.02909200
C        1.90844000      15.36471000      13.85026000      -0.00000000      -0.00463700       0.02618400
H        0.63615000      15.85859000      15.51677000       0.00000000      -0.04799000       0.00564200
H        1.90844000      15.48848000      12.75960000       0.00000000      -0.00469500       0.02777500
H        0.63615000      17.05483000      14.24391000       0.00000000      -0.02013500      -0.02489000
H        1.90844000      14.28225000      14.03246000       0.00000000       0.02380100      -0.00561800
