6
Lattice="2.5445879 0.0 0.0 -0.0 30.0 0.0 0.0 0.0 30.0" Properties=species:S:1:pos:R:3:forces:R:3 energy=-34.74462328 pbc="T T T"
C        0.63615000      15.97237000      14.42610000       0.00000000      -0.04839700       0.03587100
C        1.90844000      15.36471000      13.85026000      -0.00000000      -0.00073300      -0.03063900
H        0.63615000      15.83859000      15.51677000       0.00000000       0.05796800      -0.05634500
H        1.90844000      15.48848000      12.75960000      -0.00000000      -0.00549700       0.02049500
H        0.63615000      17.05483000      14.24391000       0.00000000      -0.02840700       0.03726200
H        1.90844000      14.28225000      14.03246000       0.00000000       0.02506500      -0.00664400
