6
Lattice="2.5445879 0.0 0.0 -0.0 30.0 0.0 0.0 0.0 30.0" Properties=species:S:1:pos:R:3:forces:R:3 energy=-34.74336911 pbc="T T T"
C        0.63615000      15.97237000      14.42610000       0.00000000       0.03660300      -0.28147200
C        1.90844000      15.36471000      13.85026000      -0.00000000      -0.00046000      -0.03034100
H        0.63615000      15.84859000      15.50677000       0.00000000      -0.02787000       0.29084700
H        1.90844000      15.48848000      12.75960000      -0.00000000      -0.00846000       0.02577700
H        0.63615000      17.05483000      14.24391000       0.00000000      -0.02411500       0.00030900
H        1.90844000      14.28225000      14.03246000      -0.00000000       0.02430200      -0.00511900
