6
Lattice="2.5445879 0.0 0.0 -0.0 30.0 0.0 0.0 0.0 30.0" Properties=species:S:1:pos:R:3:forces:R:3 energy=-34.74478359 pbc="T T T"
C        0.63615000      15.97237000      14.42610000       0.00000000       0.00093400       0.03076600
C        1.90844000      15.36471000      13.85026000      -0.00000000       0.04887200      -0.03541500
H        0.63615000      15.84859000      15.51677000       0.00000000       0.00506100      -0.02156100
H        1.90844000      15.49848000      12.75960000       0.00000000      -0.05834400       0.05647500
H        0.63615000      17.05483000      14.24391000       0.00000000      -0.02559200       0.00690900
H        1.90844000      14.28225000      14.03246000       0.00000000       0.02906900      -0.03717600
