6
Lattice="2.5445879 0.0 0.0 -0.0 30.0 0.0 0.0 0.0 30.0" Properties=species:S:1:pos:R:3:forces:R:3 energy=-34.74449106 pbc="T T T"
C        0.63615000      15.97237000      14.42610000      -0.00000000       0.00513000      -0.02578200
C        1.90844000      15.36471000      13.85026000      -0.00000000      -0.05342400       0.02920200
H        0.63615000      15.84859000      15.51677000       0.00000000       0.00428600      -0.02842500
H        1.90844000      15.47848000      12.75960000       0.00000000       0.04743100      -0.00585500
H        0.63615000      17.05483000      14.24391000       0.00000000      -0.02386900       0.00580900
H        1.90844000      14.28225000      14.03246000       0.00000000       0.02044700       0.02505100
