6
Lattice="2.5445879 0.0 0.0 -0.0 30.0 0.0 0.0 0.0 30.0" Properties=species:S:1:pos:R:3:forces:R:3 energy=-34.74303594 pbc="T T T"
C        0.63615000      15.97237000      14.42610000      -0.00000000       0.00627400      -0.02480900
C        1.90844000      15.36471000      13.85026000       0.00000000       0.02739600      -0.26932800
H        0.63615000      15.84859000      15.51677000      -0.00000000       0.00141300      -0.02398600
H        1.90844000      15.48848000      12.74960000      -0.00000000      -0.03530300       0.32306300
H        0.63615000      17.05483000      14.24391000      -0.00000000      -0.02542600       0.00751900
H        1.90844000      14.28225000      14.03246000       0.00000000       0.02564700      -0.01246000
