6
Lattice="2.5445879 0.0 0.0 -0.0 30.0 0.0 0.0 0.0 30.0" Properties=species:S:1:pos:R:3:forces:R:3 energy=-34.7446095 pbc="T T T"
C        0.63615000      15.97237000      14.42610000       0.03953500       0.00397500       0.00225900
C        1.90844000      15.36471000      13.85026000       0.00555300      -0.00268500      -0.00217200
H        0.63615000      15.84859000      15.51677000       0.00091700       0.00464500      -0.02457400
H        1.90844000      15.48848000      12.75960000      -0.00225700      -0.00507600       0.02410500
H        0.64615000      17.05483000      14.24391000      -0.05255800      -0.02513900       0.00648100
H        1.90844000      14.28225000      14.03246000       0.00880900       0.02428100      -0.00609800
