6
Lattice="2.5445879 0.0 0.0 -0.0 30.0 0.0 0.0 0.0 30.0" Properties=species:S:1:pos:R:3:forces:R:3 energy=-34.74462928 pbc="T T T"
C        0.63615000      15.97237000      14.42610000      -0.03976600       0.00389300       0.00218000
C        1.90844000      15.36471000      13.85026000      -0.00532000      -0.00261700      -0.00209500
H        0.63615000      15.84859000      15.51677000      -0.00092600       0.00462800      -0.02441300
H        1.90844000      15.48848000      12.75960000       0.00226500      -0.00505800       0.02395600
H        0.62615000      17.05483000      14.24391000       0.05254500      -0.02498600       0.00644600
H        1.90844000      14.28225000      14.03246000      -0.00879800       0.02414000      -0.00607500
