6
Lattice="2.5445879 0.0 0.0 -0.0 30.0 0.0 0.0 0.0 30.0" Properties=species:S:1:pos:R:3:forces:R:3 energy=-34.74321812 pbc="T T T"
C        0.63615000      15.97237000      14.42610000       0.00000000       0.26563500      -0.03956000
C        1.90844000      15.36471000      13.85026000      -0.00000000       0.02654600      -0.00649700
H        0.63615000      15.84859000      15.51677000       0.00000000       0.00919900      -0.02526300
H        1.90844000      15.48848000      12.75960000      -0.00000000      -0.00607300       0.02467300
H        0.63615000      17.06483000      14.24391000       0.00000000      -0.31882100       0.04937000
H        1.90844000      14.28225000      14.03246000      -0.00000000       0.02351400      -0.00272300
