6
Lattice="2.5445879 0.0 0.0 -0.0 30.0 0.0 0.0 0.0 30.0" Properties=species:S:1:pos:R:3:forces:R:3 energy=-34.74341773 pbc="T T T"
C        0.63615000      15.97237000      14.42610000       0.00000000      -0.27661800       0.04835600
C        1.90844000      15.36471000      13.85026000      -0.00000000      -0.03200200       0.00181800
H        0.63615000      15.84859000      15.51677000       0.00000000       0.00033700      -0.02422400
H        1.90844000      15.48848000      12.75960000      -0.00000000      -0.00411100       0.02383600
H        0.63615000      17.04483000      14.24391000       0.00000000       0.28696400      -0.04025100
H        1.90844000      14.28225000      14.03246000       0.00000000       0.02543000      -0.00953400
