6
Lattice="2.5445879 0.0 0.0 -0.0 30.0 0.0 0.0 0.0 30.0" Properties=species:S:1:pos:R:3:forces:R:3 energy=-34.74458678 pbc="T T T"
C        0.63615000      15.97237000      14.42610000      -0.00000000       0.04811900      -0.05317800
C        1.90844000      15.36471000      13.85026000      -0.00000000      -0.02942500       0.00102500
H        0.63615000      15.84859000      15.51677000       0.00000000       0.03562500      -0.03040600
H        1.90844000      15.48848000      12.75960000       0.00000000      -0.00563200       0.02493200
H        0.63615000      17.05483000      14.23391000       0.00000000      -0.06938600       0.06375300
H        1.90844000      14.28225000      14.03246000      -0.00000000       0.02069800      -0.00612600
