6
Lattice="2.5445879 0.0 0.0 -0.0 30.0 0.0 0.0 0.0 30.0" Properties=species:S:1:pos:R:3:forces:R:3 energy=-34.74463403 pbc="T T T"
C        0.63615000      15.97237000      14.42610000       0.00531500       0.00299400       0.00235200
C        1.90844000      15.36471000      13.85026000       0.03976300      -0.00350300      -0.00190600
H        0.63615000      15.84859000      15.51677000      -0.00226900       0.00461100      -0.02439700
H        1.90844000      15.48848000      12.75960000       0.00092200      -0.00507300       0.02393500
H        0.63615000      17.05483000      14.24391000       0.00879300      -0.02406900       0.00626200
H        1.91844000      14.28225000      14.03246000      -0.05252300       0.02504100      -0.00624600
