6
Lattice="2.5445879 0.0 0.0 -0.0 30.0 0.0 0.0 0.0 30.0" Properties=species:S:1:pos:R:3:forces:R:3 energy=-34.74463799 pbc="T T T"
C        0.63615000      15.97237000      14.42610000      -0.00555000       0.00299700       0.00236400
C        1.90844000      15.36471000      13.85026000      -0.03952900      -0.00350100      -0.00190900
H        0.63615000      15.84859000      15.51677000       0.00226000       0.00461200      -0.02439800
H        1.90844000      15.48848000      12.75960000      -0.00091300      -0.00506500       0.02394000
H        0.63615000      17.05483000      14.24391000      -0.00880400      -0.02408400       0.00626000
H        1.89844000      14.28225000      14.03246000       0.05253600       0.02504100      -0.00625700
