6
Lattice="2.5445879 0.0 0.0 -0.0 30.0 0.0 0.0 0.0 30.0" Properties=species:S:1:pos:R:3:forces:R:3 energy=-34.74338262 pbc="T T T"
C        0.63615000      15.97237000      14.42610000      -0.00000000       0.03252800      -0.00135700
C        1.90844000      15.36471000      13.85026000       0.00000000       0.27679500      -0.04825100
H        0.63615000      15.84859000      15.51677000      -0.00000000       0.00368600      -0.02456100
H        1.90844000      15.48848000      12.75960000       0.00000000      -0.00083600       0.02403400
H        0.63615000      17.05483000      14.24391000      -0.00000000      -0.02562600       0.00976300
H        1.90844000      14.29225000      14.03246000      -0.00000000      -0.28654700       0.04037100
