6
Lattice="2.5445879 0.0 0.0 -0.0 30.0 0.0 0.0 0.0 30.0" Properties=species:S:1:pos:R:3:forces:R:3 energy=-34.74316232 pbc="T T T"
C        0.63615000      15.97237000      14.42610000       0.00000000      -0.02610400       0.00686500
C        1.90844000      15.36471000      13.85026000      -0.00000000      -0.26544700       0.03973300
H        0.63615000      15.84859000      15.51677000       0.00000000       0.00567200      -0.02532600
H        1.90844000      15.48848000      12.75960000       0.00000000      -0.00965900       0.02503700
H        0.63615000      17.05483000      14.24391000       0.00000000      -0.02359200       0.00291100
H        1.90844000      14.27225000      14.03246000       0.00000000       0.31913000      -0.04922000
