6
Lattice="2.5445879 0.0 0.0 -0.0 30.0 0.0 0.0 0.0 30.0" Properties=species:S:1:pos:R:3:forces:R:3 energy=-34.74458419 pbc="T T T"
C        0.63615000      15.97237000      14.42610000      -0.00000000       0.02983700      -0.00072600
C        1.90844000      15.36471000      13.85026000       0.00000000      -0.04779600       0.05343200
H        0.63615000      15.84859000      15.51677000      -0.00000000       0.00521200      -0.02545500
H        1.90844000      15.48848000      12.75960000      -0.00000000      -0.03607200       0.02999700
H        0.63615000      17.05483000      14.24391000      -0.00000000      -0.02070200       0.00632000
H        1.90844000      14.28225000      14.04246000       0.00000000       0.06952200      -0.06356800
