6
Lattice="2.5445879 0.0 0.0 -0.0 30.0 0.0 0.0 0.0 30.0" Properties=species:S:1:pos:R:3 pbc="T T T"
C        0.63611420      15.95470019      14.43016625
C        1.90837517      15.37595787      13.84842890
H        0.63651318      15.84575101      15.50798688
H        1.90887099      15.49164624      12.75551641
H        0.63649230      17.27170320      14.20456985
H        1.90885365      14.14155086      14.05824102
6
Lattice="2.5445879 0.0 0.0 -0.0 30.0 0.0 0.0 0.0 30.0" Properties=species:S:1:pos:R:3 pbc="T T T"
C        0.63611932      15.95722445      14.42958536
C        1.90838443      15.37435103      13.84869049
H        0.63646130      15.84615658      15.50924162
H        1.90880942      15.49119392      12.75609978
H        0.63644340      17.24072131      14.21018987
H        1.90879456      14.16165074      14.05455801
6
Lattice="2.5445879 0.0 0.0 -0.0 30.0 0.0 0.0 0.0 30.0" Properties=species:S:1:pos:R:3 pbc="T T T"
C        0.63612443      15.95974871      14.42900447
C        1.90839370      15.37274419      13.84895207
H        0.63640942      15.84656215      15.51049635
H        1.90874785      15.49074160      12.75668315
H        0.63639450      17.20973943      14.21580989
H        1.90873547      14.18175062      14.05087501
6
Lattice="2.5445879 0.0 0.0 -0.0 30.0 0.0 0.0 0.0 30.0" Properties=species:S:1:pos:R:3 pbc="T T T"
C        0.63612954      15.96227297      14.42842357
C        1.90840296      15.37113735      13.84921366
H        0.63635753      15.84696772      15.51175108
H        1.90868628      15.49028928      12.75726652
H        0.63634560      17.17875754      14.22142992
H        1.90867637      14.20185049      14.04719201
6
Lattice="2.5445879 0.0 0.0 -0.0 30.0 0.0 0.0 0.0 30.0" Properties=species:S:1:pos:R:3 pbc="T T T"
C        0.63613466      15.96479723      14.42784268
C        1.90841222      15.36953052      13.84947524
H        0.63630565      15.84737329      15.51300581
H        1.90862471      15.48983696      12.75784989
H        0.63629670      17.14777566      14.22704994
H        1.90861728      14.22195037      14.04350901
6
Lattice="2.5445879 0.0 0.0 -0.0 30.0 0.0 0.0 0.0 30.0" Properties=species:S:1:pos:R:3 pbc="T T T"
C        0.63613977      15.96732148      14.42726179
C        1.90842148      15.36792368      13.84973683
H        0.63625377      15.84777886      15.51426054
H        1.90856314      15.48938464      12.75843326
H        0.63624780      17.11679377      14.23266996
H        1.90855819      14.24205025      14.03982600
6
Lattice="2.5445879 0.0 0.0 -0.0 30.0 0.0 0.0 0.0 30.0" Properties=species:S:1:pos:R:3 pbc="T T T"
C        0.63614489      15.96984574      14.42668089
C        1.90843074      15.36631684      13.84999841
H        0.63620188      15.84818443      15.51551527
H        1.90850157      15.48893232      12.75901663
H        0.63619890      17.08581189      14.23828998
H        1.90849909      14.26215012      14.03614300
6
Lattice="2.5445879 0.0 0.0 -0.0 30.0 0.0 0.0 0.0 30.0" Properties=species:S:1:pos:R:3 pbc="T T T"
C        0.63615000      15.97237000      14.42610000
C        1.90844000      15.36471000      13.85026000
H        0.63615000      15.84859000      15.51677000
H        1.90844000      15.48848000      12.75960000
H        0.63615000      17.05483000      14.24391000
H        1.90844000      14.28225000      14.03246000
6
Lattice="2.5445879 0.0 0.0 -0.0 30.0 0.0 0.0 0.0 30.0" Properties=species:S:1:pos:R:3 pbc="T T T"
C        0.63615511      15.97489426      14.42551911
C        1.90844926      15.36310316      13.85052159
H        0.63609812      15.84899557      15.51802473
H        1.90837843      15.48802768      12.76018337
H        0.63610110      17.02384811      14.24953002
H        1.90838091      14.30234988      14.02877700
6
Lattice="2.5445879 0.0 0.0 -0.0 30.0 0.0 0.0 0.0 30.0" Properties=species:S:1:pos:R:3 pbc="T T T"
C        0.63616023      15.97741852      14.42493821
C        1.90845852      15.36149632      13.85078317
H        0.63604623      15.84940114      15.51927946
H        1.90831686      15.48757536      12.76076674
H        0.63605220      16.99286623      14.25515004
H        1.90832181      14.32244975      14.02509400
6
Lattice="2.5445879 0.0 0.0 -0.0 30.0 0.0 0.0 0.0 30.0" Properties=species:S:1:pos:R:3 pbc="T T T"
C        0.63616534      15.97994277      14.42435732
C        1.90846778      15.35988948      13.85104476
H        0.63599435      15.84980671      15.52053419
H        1.90825529      15.48712304      12.76135011
H        0.63600330      16.96188434      14.26077006
H        1.90826272      14.34254963      14.02141099
6
Lattice="2.5445879 0.0 0.0 -0.0 30.0 0.0 0.0 0.0 30.0" Properties=species:S:1:pos:R:3 pbc="T T T"
C        0.63617046      15.98246703      14.42377643
C        1.90847704      15.35828265      13.85130634
H        0.63594247      15.85021228      15.52178892
H        1.90819372      15.48667072      12.76193348
H        0.63595440      16.93090246      14.26639008
H        1.90820363      14.36264951      14.01772799
6
Lattice="2.5445879 0.0 0.0 -0.0 30.0 0.0 0.0 0.0 30.0" Properties=species:S:1:pos:R:3 pbc="T T T"
C        0.63617557      15.98499129      14.42319553
C        1.90848630      15.35667581      13.85156793
H        0.63589058      15.85061785      15.52304365
H        1.90813215      15.48621840      12.76251685
H        0.63590550      16.89992057      14.27201011
H        1.90814453      14.38274938      14.01404499
6
Lattice="2.5445879 0.0 0.0 -0.0 30.0 0.0 0.0 0.0 30.0" Properties=species:S:1:pos:R:3 pbc="T T T"
C        0.63618068      15.98751555      14.42261464
C        1.90849557      15.35506897      13.85182951
H        0.63583870      15.85102342      15.52429838
H        1.90807058      15.48576608      12.76310022
H        0.63585660      16.86893869      14.27763013
H        1.90808544      14.40284926      14.01036199
6
Lattice="2.5445879 0.0 0.0 -0.0 30.0 0.0 0.0 0.0 30.0" Properties=species:S:1:pos:R:3 pbc="T T T"
C        0.63618580      15.99003981      14.42203375
C        1.90850483      15.35346213      13.85209110
H        0.63578682      15.85142899      15.52555312
H        1.90800901      15.48531376      12.76368359
H        0.63580770      16.83795680      14.28325015
H        1.90802635      14.42294914      14.00667898
6
Lattice="2.5445879 0.0 0.0 -0.0 30.0 0.0 0.0 0.0 30.0" Properties=species:S:1:pos:R:3 pbc="T T T"
C        0.63618068      15.98751555      14.42261464
C        1.90849557      15.35506897      13.85182951
H        0.63583870      15.85102342      15.52429838
H        1.90807058      15.48576608      12.76310022
H        0.63585660      16.86893869      14.27763013
H        1.90808544      14.40284926      14.01036199
6
Lattice="2.5445879 0.0 0.0 -0.0 30.0 0.0 0.0 0.0 30.0" Properties=species:S:1:pos:R:3 pbc="T T T"
C        0.63617557      15.98499129      14.42319553
C        1.90848630      15.35667581      13.85156793
H        0.63589058      15.85061785      15.52304365
H        1.90813215      15.48621840      12.76251685
H        0.63590550      16.89992057      14.27201011
H        1.90814453      14.38274938      14.01404499
6
Lattice="2.5445879 0.0 0.0 -0.0 30.0 0.0 0.0 0.0 30.0" Properties=species:S:1:pos:R:3 pbc="T T T"
C        0.63617046      15.98246703      14.42377643
C        1.90847704      15.35828265      13.85130634
H        0.63594247      15.85021228      15.52178892
H        1.90819372      15.48667072      12.76193348
H        0.63595440      16.93090246      14.26639008
H        1.90820363      14.36264951      14.01772799
6
Lattice="2.5445879 0.0 0.0 -0.0 30.0 0.0 0.0 0.0 30.0" Properties=species:S:1:pos:R:3 pbc="T T T"
C        0.63616534      15.97994277      14.42435732
C        1.90846778      15.35988948      13.85104476
H        0.63599435      15.84980671      15.52053419
H        1.90825529      15.48712304      12.76135011
H        0.63600330      16.96188434      14.26077006
H        1.90826272      14.34254963      14.02141099
6
Lattice="2.5445879 0.0 0.0 -0.0 30.0 0.0 0.0 0.0 30.0" Properties=species:S:1:pos:R:3 pbc="T T T"
C        0.63616023      15.97741852      14.42493821
C        1.90845852      15.36149632      13.85078317
H        0.63604623      15.84940114      15.51927946
H        1.90831686      15.48757536      12.76076674
H        0.63605220      16.99286623      14.25515004
H        1.90832181      14.32244975      14.02509400
6
Lattice="2.5445879 0.0 0.0 -0.0 30.0 0.0 0.0 0.0 30.0" Properties=species:S:1:pos:R:3 pbc="T T T"
C        0.63615511      15.97489426      14.42551911
C        1.90844926      15.36310316      13.85052159
H        0.63609812      15.84899557      15.51802473
H        1.90837843      15.48802768      12.76018337
H        0.63610110      17.02384811      14.24953002
H        1.90838091      14.30234988      14.02877700
6
Lattice="2.5445879 0.0 0.0 -0.0 30.0 0.0 0.0 0.0 30.0" Properties=species:S:1:pos:R:3 pbc="T T T"
C        0.63615000      15.97237000      14.42610000
C        1.90844000      15.36471000      13.85026000
H        0.63615000      15.84859000      15.51677000
H        1.90844000      15.48848000      12.75960000
H        0.63615000      17.05483000      14.24391000
H        1.90844000      14.28225000      14.03246000
6
Lattice="2.5445879 0.0 0.0 -0.0 30.0 0.0 0.0 0.0 30.0" Properties=species:S:1:pos:R:3 pbc="T T T"
C        0.63614489      15.96984574      14.42668089
C        1.90843074      15.36631684      13.84999841
H        0.63620188      15.84818443      15.51551527
H        1.90850157      15.48893232      12.75901663
H        0.63619890      17.08581189      14.23828998
H        1.90849909      14.26215012      14.03614300
6
Lattice="2.5445879 0.0 0.0 -0.0 30.0 0.0 0.0 0.0 30.0" Properties=species:S:1:pos:R:3 pbc="T T T"
C        0.63613977      15.96732148      14.42726179
C        1.90842148      15.36792368      13.84973683
H        0.63625377      15.84777886      15.51426054
H        1.90856314      15.48938464      12.75843326
H        0.63624780      17.11679377      14.23266996
H        1.90855819      14.24205025      14.03982600
6
Lattice="2.5445879 0.0 0.0 -0.0 30.0 0.0 0.0 0.0 30.0" Properties=species:S:1:pos:R:3 pbc="T T T"
C        0.63613466      15.96479723      14.42784268
C        1.90841222      15.36953052      13.84947524
H        0.63630565      15.84737329      15.51300581
H        1.90862471      15.48983696      12.75784989
H        0.63629670      17.14777566      14.22704994
H        1.90861728      14.22195037      14.04350901
6
Lattice="2.5445879 0.0 0.0 -0.0 30.0 0.0 0.0 0.0 30.0" Properties=species:S:1:pos:R:3 pbc="T T T"
C        0.63612954      15.96227297      14.42842357
C        1.90840296      15.37113735      13.84921366
H        0.63635753      15.84696772      15.51175108
H        1.90868628      15.49028928      12.75726652
H        0.63634560      17.17875754      14.22142992
H        1.90867637      14.20185049      14.04719201
6
Lattice="2.5445879 0.0 0.0 -0.0 30.0 0.0 0.0 0.0 30.0" Properties=species:S:1:pos:R:3 pbc="T T T"
C        0.63612443      15.95974871      14.42900447
C        1.90839370      15.37274419      13.84895207
H        0.63640942      15.84656215      15.51049635
H        1.90874785      15.49074160      12.75668315
H        0.63639450      17.20973943      14.21580989
H        1.90873547      14.18175062      14.05087501
6
Lattice="2.5445879 0.0 0.0 -0.0 30.0 0.0 0.0 0.0 30.0" Properties=species:S:1:pos:R:3 pbc="T T T"
C        0.63611932      15.95722445      14.42958536
C        1.90838443      15.37435103      13.84869049
H        0.63646130      15.84615658      15.50924162
H        1.90880942      15.49119392      12.75609978
H        0.63644340      17.24072131      14.21018987
H        1.90879456      14.16165074      14.05455801
