6
Lattice="2.5445879 0.0 0.0 -0.0 30.0 0.0 0.0 0.0 30.0" Properties=species:S:1:pos:R:3 pbc="T T T"
C        0.63614122      15.98882914      14.40844767
C        1.90845045      15.38141204      13.83295910
H        0.63610692      15.59015208      15.46975299
H        1.90844298      15.23017304      12.71263109
H        0.63613053      17.11569209      14.49942519
H        1.90843706      14.34303915      14.28806644
6
Lattice="2.5445879 0.0 0.0 -0.0 30.0 0.0 0.0 0.0 30.0" Properties=species:S:1:pos:R:3 pbc="T T T"
C        0.63614247      15.98647783      14.41096943
C        1.90844896      15.37902603      13.83543066
H        0.63611308      15.62707178      15.47646970
H        1.90844255      15.26707404      12.71934093
H        0.63613331      17.10699751      14.46292302
H        1.90843748      14.33435499      14.25155124
6
Lattice="2.5445879 0.0 0.0 -0.0 30.0 0.0 0.0 0.0 30.0" Properties=species:S:1:pos:R:3 pbc="T T T"
C        0.63614373      15.98412653      14.41349119
C        1.90844747      15.37664003      13.83790222
H        0.63611923      15.66399149      15.48318642
H        1.90844213      15.30397503      12.72605078
H        0.63613609      17.09830292      14.42642085
H        1.90843790      14.32567082      14.21503603
6
Lattice="2.5445879 0.0 0.0 -0.0 30.0 0.0 0.0 0.0 30.0" Properties=species:S:1:pos:R:3 pbc="T T T"
C        0.63614498      15.98177522      14.41601295
C        1.90844597      15.37425402      13.84037377
H        0.63612538      15.70091119      15.48990314
H        1.90844170      15.34087603      12.73276062
H        0.63613887      17.08960834      14.38991868
H        1.90843832      14.31698666      14.17852082
6
Lattice="2.5445879 0.0 0.0 -0.0 30.0 0.0 0.0 0.0 30.0" Properties=species:S:1:pos:R:3 pbc="T T T"
C        0.63614624      15.97942392      14.41853472
C        1.90844448      15.37186802      13.84284533
H        0.63613154      15.73783089      15.49661985
H        1.90844128      15.37777702      12.73947047
H        0.63614165      17.08091375      14.35341651
H        1.90843874      14.30830249      14.14200562
6
Lattice="2.5445879 0.0 0.0 -0.0 30.0 0.0 0.0 0.0 30.0" Properties=species:S:1:pos:R:3 pbc="T T T"
C        0.63614749      15.97707261      14.42105648
C        1.90844299      15.36948201      13.84531689
H        0.63613769      15.77475059      15.50333657
H        1.90844085      15.41467801      12.74618031
H        0.63614444      17.07221917      14.31691434
H        1.90843916      14.29961833      14.10549041
6
Lattice="2.5445879 0.0 0.0 -0.0 30.0 0.0 0.0 0.0 30.0" Properties=species:S:1:pos:R:3 pbc="T T T"
C        0.63614875      15.97472131      14.42357824
C        1.90844149      15.36709601      13.84778844
H        0.63614385      15.81167030      15.51005328
H        1.90844043      15.45157901      12.75289016
H        0.63614722      17.06352458      14.28041217
H        1.90843958      14.29093416      14.06897521
6
Lattice="2.5445879 0.0 0.0 -0.0 30.0 0.0 0.0 0.0 30.0" Properties=species:S:1:pos:R:3 pbc="T T T"
C        0.63615000      15.97237000      14.42610000
C        1.90844000      15.36471000      13.85026000
H        0.63615000      15.84859000      15.51677000
H        1.90844000      15.48848000      12.75960000
H        0.63615000      17.05483000      14.24391000
H        1.90844000      14.28225000      14.03246000
6
Lattice="2.5445879 0.0 0.0 -0.0 30.0 0.0 0.0 0.0 30.0" Properties=species:S:1:pos:R:3 pbc="T T T"
C        0.63615125      15.97001869      14.42862176
C        1.90843851      15.36232399      13.85273156
H        0.63615615      15.88550970      15.52348672
H        1.90843957      15.52538099      12.76630984
H        0.63615278      17.04613542      14.20740783
H        1.90844042      14.27356584      13.99594479
6
Lattice="2.5445879 0.0 0.0 -0.0 30.0 0.0 0.0 0.0 30.0" Properties=species:S:1:pos:R:3 pbc="T T T"
C        0.63615251      15.96766739      14.43114352
C        1.90843701      15.35993799      13.85520311
H        0.63616231      15.92242941      15.53020343
H        1.90843915      15.56228199      12.77301969
H        0.63615556      17.03744083      14.17090566
H        1.90844084      14.26488167      13.95942959
6
Lattice="2.5445879 0.0 0.0 -0.0 30.0 0.0 0.0 0.0 30.0" Properties=species:S:1:pos:R:3 pbc="T T T"
C        0.63615376      15.96531608      14.43366528
C        1.90843552      15.35755198      13.85767467
H        0.63616846      15.95934911      15.53692015
H        1.90843872      15.59918298      12.77972953
H        0.63615835      17.02874625      14.13440349
H        1.90844126      14.25619751      13.92291438
6
Lattice="2.5445879 0.0 0.0 -0.0 30.0 0.0 0.0 0.0 30.0" Properties=species:S:1:pos:R:3 pbc="T T T"
C        0.63615502      15.96296478      14.43618705
C        1.90843403      15.35516598      13.86014623
H        0.63617462      15.99626881      15.54363686
H        1.90843830      15.63608397      12.78643938
H        0.63616113      17.02005166      14.09790132
H        1.90844168      14.24751334      13.88639918
6
Lattice="2.5445879 0.0 0.0 -0.0 30.0 0.0 0.0 0.0 30.0" Properties=species:S:1:pos:R:3 pbc="T T T"
C        0.63615627      15.96061347      14.43870881
C        1.90843253      15.35277997      13.86261778
H        0.63618077      16.03318851      15.55035358
H        1.90843787      15.67298497      12.79314922
H        0.63616391      17.01135708      14.06139915
H        1.90844210      14.23882918      13.84988397
6
Lattice="2.5445879 0.0 0.0 -0.0 30.0 0.0 0.0 0.0 30.0" Properties=species:S:1:pos:R:3 pbc="T T T"
C        0.63615753      15.95826217      14.44123057
C        1.90843104      15.35039397      13.86508934
H        0.63618692      16.07010822      15.55707030
H        1.90843745      15.70988596      12.79985907
H        0.63616669      17.00266249      14.02489698
H        1.90844252      14.23014501      13.81336876
6
Lattice="2.5445879 0.0 0.0 -0.0 30.0 0.0 0.0 0.0 30.0" Properties=species:S:1:pos:R:3 pbc="T T T"
C        0.63615878      15.95591086      14.44375233
C        1.90842955      15.34800796      13.86756090
H        0.63619308      16.10702792      15.56378701
H        1.90843702      15.74678696      12.80656891
H        0.63616947      16.99396791      13.98839481
H        1.90844294      14.22146085      13.77685356
6
Lattice="2.5445879 0.0 0.0 -0.0 30.0 0.0 0.0 0.0 30.0" Properties=species:S:1:pos:R:3 pbc="T T T"
C        0.63615753      15.95826217      14.44123057
C        1.90843104      15.35039397      13.86508934
H        0.63618692      16.07010822      15.55707030
H        1.90843745      15.70988596      12.79985907
H        0.63616669      17.00266249      14.02489698
H        1.90844252      14.23014501      13.81336876
6
Lattice="2.5445879 0.0 0.0 -0.0 30.0 0.0 0.0 0.0 30.0" Properties=species:S:1:pos:R:3 pbc="T T T"
C        0.63615627      15.96061347      14.43870881
C        1.90843253      15.35277997      13.86261778
H        0.63618077      16.03318851      15.55035358
H        1.90843787      15.67298497      12.79314922
H        0.63616391      17.01135708      14.06139915
H        1.90844210      14.23882918      13.84988397
6
Lattice="2.5445879 0.0 0.0 -0.0 30.0 0.0 0.0 0.0 30.0" Properties=species:S:1:pos:R:3 pbc="T T T"
C        0.63615502      15.96296478      14.43618705
C        1.90843403      15.35516598      13.86014623
H        0.63617462      15.99626881      15.54363686
H        1.90843830      15.63608397      12.78643938
H        0.63616113      17.02005166      14.09790132
H        1.90844168      14.24751334      13.88639918
6
Lattice="2.5445879 0.0 0.0 -0.0 30.0 0.0 0.0 0.0 30.0" Properties=species:S:1:pos:R:3 pbc="T T T"
C        0.63615376      15.96531608      14.43366528
C        1.90843552      15.35755198      13.85767467
H        0.63616846      15.95934911      15.53692015
H        1.90843872      15.59918298      12.77972953
H        0.63615835      17.02874625      14.13440349
H        1.90844126      14.25619751      13.92291438
6
Lattice="2.5445879 0.0 0.0 -0.0 30.0 0.0 0.0 0.0 30.0" Properties=species:S:1:pos:R:3 pbc="T T T"
C        0.63615251      15.96766739      14.43114352
C        1.90843701      15.35993799      13.85520311
H        0.63616231      15.92242941      15.53020343
H        1.90843915      15.56228199      12.77301969
H        0.63615556      17.03744083      14.17090566
H        1.90844084      14.26488167      13.95942959
6
Lattice="2.5445879 0.0 0.0 -0.0 30.0 0.0 0.0 0.0 30.0" Properties=species:S:1:pos:R:3 pbc="T T T"
C        0.63615125      15.97001869      14.42862176
C        1.90843851      15.36232399      13.85273156
H        0.63615615      15.88550970      15.52348672
H        1.90843957      15.52538099      12.76630984
H        0.63615278      17.04613542      14.20740783
H        1.90844042      14.27356584      13.99594479
6
Lattice="2.5445879 0.0 0.0 -0.0 30.0 0.0 0.0 0.0 30.0" Properties=species:S:1:pos:R:3 pbc="T T T"
C        0.63615000      15.97237000      14.42610000
C        1.90844000      15.36471000      13.85026000
H        0.63615000      15.84859000      15.51677000
H        1.90844000      15.48848000      12.75960000
H        0.63615000      17.05483000      14.24391000
H        1.90844000      14.28225000      14.03246000
6
Lattice="2.5445879 0.0 0.0 -0.0 30.0 0.0 0.0 0.0 30.0" Properties=species:S:1:pos:R:3 pbc="T T T"
C        0.63614875      15.97472131      14.42357824
C        1.90844149      15.36709601      13.84778844
H        0.63614385      15.81167030      15.51005328
H        1.90844043      15.45157901      12.75289016
H        0.63614722      17.06352458      14.28041217
H        1.90843958      14.29093416      14.06897521
6
Lattice="2.5445879 0.0 0.0 -0.0 30.0 0.0 0.0 0.0 30.0" Properties=species:S:1:pos:R:3 pbc="T T T"
C        0.63614749      15.97707261      14.42105648
C        1.90844299      15.36948201      13.84531689
H        0.63613769      15.77475059      15.50333657
H        1.90844085      15.41467801      12.74618031
H        0.63614444      17.07221917      14.31691434
H        1.90843916      14.29961833      14.10549041
6
Lattice="2.5445879 0.0 0.0 -0.0 30.0 0.0 0.0 0.0 30.0" Properties=species:S:1:pos:R:3 pbc="T T T"
C        0.63614624      15.97942392      14.41853472
C        1.90844448      15.37186802      13.84284533
H        0.63613154      15.73783089      15.49661985
H        1.90844128      15.37777702      12.73947047
H        0.63614165      17.08091375      14.35341651
H        1.90843874      14.30830249      14.14200562
6
Lattice="2.5445879 0.0 0.0 -0.0 30.0 0.0 0.0 0.0 30.0" Properties=species:S:1:pos:R:3 pbc="T T T"
C        0.63614498      15.98177522      14.41601295
C        1.90844597      15.37425402      13.84037377
H        0.63612538      15.70091119      15.48990314
H        1.90844170      15.34087603      12.73276062
H        0.63613887      17.08960834      14.38991868
H        1.90843832      14.31698666      14.17852082
6
Lattice="2.5445879 0.0 0.0 -0.0 30.0 0.0 0.0 0.0 30.0" Properties=species:S:1:pos:R:3 pbc="T T T"
C        0.63614373      15.98412653      14.41349119
C        1.90844747      15.37664003      13.83790222
H        0.63611923      15.66399149      15.48318642
H        1.90844213      15.30397503      12.72605078
H        0.63613609      17.09830292      14.42642085
H        1.90843790      14.32567082      14.21503603
6
Lattice="2.5445879 0.0 0.0 -0.0 30.0 0.0 0.0 0.0 30.0" Properties=species:S:1:pos:R:3 pbc="T T T"
C        0.63614247      15.98647783      14.41096943
C        1.90844896      15.37902603      13.83543066
H        0.63611308      15.62707178      15.47646970
H        1.90844255      15.26707404      12.71934093
H        0.63613331      17.10699751      14.46292302
H        1.90843748      14.33435499      14.25155124
