6
Lattice="2.5445879 0.0 0.0 -0.0 30.0 0.0 0.0 0.0 30.0" Properties=species:S:1:pos:R:3 pbc="T T T"
C        0.56604397      15.97230014      14.42606657
C        1.97853054      15.36478370      13.85029776
H        0.82426484      15.84891717      15.51694248
H        1.72049140      15.48810858      12.75943705
H        0.82426600      17.05495843      14.24411840
H        1.72034805      14.28211919      14.03219181
6
Lattice="2.5445879 0.0 0.0 -0.0 30.0 0.0 0.0 0.0 30.0" Properties=species:S:1:pos:R:3 pbc="T T T"
C        0.57605912      15.97231012      14.42607135
C        1.96851760      15.36477317      13.85029237
H        0.79739129      15.84887043      15.51691784
H        1.74734120      15.48816164      12.75946033
H        0.79739229      17.05494008      14.24408863
H        1.74721833      14.28213788      14.03223012
6
Lattice="2.5445879 0.0 0.0 -0.0 30.0 0.0 0.0 0.0 30.0" Properties=species:S:1:pos:R:3 pbc="T T T"
C        0.58607427      15.97232010      14.42607612
C        1.95850467      15.36476264      13.85028697
H        0.77051774      15.84882369      15.51689320
H        1.77419100      15.48821470      12.75948360
H        0.77051857      17.05492174      14.24405886
H        1.77408861      14.28215656      14.03226843
6
Lattice="2.5445879 0.0 0.0 -0.0 30.0 0.0 0.0 0.0 30.0" Properties=species:S:1:pos:R:3 pbc="T T T"
C        0.59608941      15.97233008      14.42608090
C        1.94849173      15.36475211      13.85028158
H        0.74364419      15.84877695      15.51686856
H        1.80104080      15.48826776      12.75950688
H        0.74364486      17.05490339      14.24402908
H        1.80095889      14.28217525      14.03230675
6
Lattice="2.5445879 0.0 0.0 -0.0 30.0 0.0 0.0 0.0 30.0" Properties=species:S:1:pos:R:3 pbc="T T T"
C        0.60610456      15.97234006      14.42608567
C        1.93847880      15.36474159      13.85027618
H        0.71677065      15.84873022      15.51684392
H        1.82789060      15.48832082      12.75953016
H        0.71677114      17.05488504      14.24399931
H        1.82782916      14.28219394      14.03234506
6
Lattice="2.5445879 0.0 0.0 -0.0 30.0 0.0 0.0 0.0 30.0" Properties=species:S:1:pos:R:3 pbc="T T T"
C        0.61611971      15.97235004      14.42609045
C        1.92846587      15.36473106      13.85027079
H        0.68989710      15.84868348      15.51681928
H        1.85474040      15.48837388      12.75955344
H        0.68989743      17.05486669      14.24396954
H        1.85469944      14.28221263      14.03238337
6
Lattice="2.5445879 0.0 0.0 -0.0 30.0 0.0 0.0 0.0 30.0" Properties=species:S:1:pos:R:3 pbc="T T T"
C        0.62613485      15.97236002      14.42609522
C        1.91845293      15.36472053      13.85026539
H        0.66302355      15.84863674      15.51679464
H        1.88159020      15.48842694      12.75957672
H        0.66302371      17.05484835      14.24393977
H        1.88156972      14.28223131      14.03242169
6
Lattice="2.5445879 0.0 0.0 -0.0 30.0 0.0 0.0 0.0 30.0" Properties=species:S:1:pos:R:3 pbc="T T T"
C        0.63615000      15.97237000      14.42610000
C        1.90844000      15.36471000      13.85026000
H        0.63615000      15.84859000      15.51677000
H        1.90844000      15.48848000      12.75960000
H        0.63615000      17.05483000      14.24391000
H        1.90844000      14.28225000      14.03246000
6
Lattice="2.5445879 0.0 0.0 -0.0 30.0 0.0 0.0 0.0 30.0" Properties=species:S:1:pos:R:3 pbc="T T T"
C        0.64616515      15.97237998      14.42610478
C        1.89842707      15.36469947      13.85025461
H        0.60927645      15.84854326      15.51674536
H        1.93528980      15.48853306      12.75962328
H        0.60927629      17.05481165      14.24388023
H        1.93531028      14.28226869      14.03249831
6
Lattice="2.5445879 0.0 0.0 -0.0 30.0 0.0 0.0 0.0 30.0" Properties=species:S:1:pos:R:3 pbc="T T T"
C        0.65618029      15.97238996      14.42610955
C        1.88841413      15.36468894      13.85024921
H        0.58240290      15.84849652      15.51672072
H        1.96213960      15.48858612      12.75964656
H        0.58240257      17.05479331      14.24385046
H        1.96218056      14.28228737      14.03253663
6
Lattice="2.5445879 0.0 0.0 -0.0 30.0 0.0 0.0 0.0 30.0" Properties=species:S:1:pos:R:3 pbc="T T T"
C        0.66619544      15.97239994      14.42611433
C        1.87840120      15.36467841      13.85024382
H        0.55552935      15.84844978      15.51669608
H        1.98898940      15.48863918      12.75966984
H        0.55552886      17.05477496      14.24382069
H        1.98905084      14.28230606      14.03257494
6
Lattice="2.5445879 0.0 0.0 -0.0 30.0 0.0 0.0 0.0 30.0" Properties=species:S:1:pos:R:3 pbc="T T T"
C        0.67621059      15.97240992      14.42611910
C        1.86838827      15.36466789      13.85023842
H        0.52865581      15.84840305      15.51667144
H        2.01583920      15.48869224      12.75969312
H        0.52865514      17.05475661      14.24379092
H        2.01592111      14.28232475      14.03261325
6
Lattice="2.5445879 0.0 0.0 -0.0 30.0 0.0 0.0 0.0 30.0" Properties=species:S:1:pos:R:3 pbc="T T T"
C        0.68622573      15.97241990      14.42612388
C        1.85837533      15.36465736      13.85023303
H        0.50178226      15.84835631      15.51664680
H        2.04268900      15.48874530      12.75971640
H        0.50178143      17.05473826      14.24376114
H        2.04279139      14.28234344      14.03265157
6
Lattice="2.5445879 0.0 0.0 -0.0 30.0 0.0 0.0 0.0 30.0" Properties=species:S:1:pos:R:3 pbc="T T T"
C        0.69624088      15.97242988      14.42612865
C        1.84836240      15.36464683      13.85022763
H        0.47490871      15.84830957      15.51662216
H        2.06953880      15.48879836      12.75973967
H        0.47490771      17.05471992      14.24373137
H        2.06966167      14.28236212      14.03268988
6
Lattice="2.5445879 0.0 0.0 -0.0 30.0 0.0 0.0 0.0 30.0" Properties=species:S:1:pos:R:3 pbc="T T T"
C        0.70625603      15.97243986      14.42613343
C        1.83834946      15.36463630      13.85022224
H        0.44803516      15.84826283      15.51659752
H        2.09638860      15.48885142      12.75976295
H        0.44803400      17.05470157      14.24370160
H        2.09653195      14.28238081      14.03272819
6
Lattice="2.5445879 0.0 0.0 -0.0 30.0 0.0 0.0 0.0 30.0" Properties=species:S:1:pos:R:3 pbc="T T T"
C        0.69624088      15.97242988      14.42612865
C        1.84836240      15.36464683      13.85022763
H        0.47490871      15.84830957      15.51662216
H        2.06953880      15.48879836      12.75973967
H        0.47490771      17.05471992      14.24373137
H        2.06966167      14.28236212      14.03268988
6
Lattice="2.5445879 0.0 0.0 -0.0 30.0 0.0 0.0 0.0 30.0" Properties=species:S:1:pos:R:3 pbc="T T T"
C        0.68622573      15.97241990      14.42612388
C        1.85837533      15.36465736      13.85023303
H        0.50178226      15.84835631      15.51664680
H        2.04268900      15.48874530      12.75971640
H        0.50178143      17.05473826      14.24376114
H        2.04279139      14.28234344      14.03265157
6
Lattice="2.5445879 0.0 0.0 -0.0 30.0 0.0 0.0 0.0 30.0" Properties=species:S:1:pos:R:3 pbc="T T T"
C        0.67621059      15.97240992      14.42611910
C        1.86838827      15.36466789      13.85023842
H        0.52865581      15.84840305      15.51667144
H        2.01583920      15.48869224      12.75969312
H        0.52865514      17.05475661      14.24379092
H        2.01592111      14.28232475      14.03261325
6
Lattice="2.5445879 0.0 0.0 -0.0 30.0 0.0 0.0 0.0 30.0" Properties=species:S:1:pos:R:3 pbc="T T T"
C        0.66619544      15.97239994      14.42611433
C        1.87840120      15.36467841      13.85024382
H        0.55552935      15.84844978      15.51669608
H        1.98898940      15.48863918      12.75966984
H        0.55552886      17.05477496      14.24382069
H        1.98905084      14.28230606      14.03257494
6
Lattice="2.5445879 0.0 0.0 -0.0 30.0 0.0 0.0 0.0 30.0" Properties=species:S:1:pos:R:3 pbc="T T T"
C        0.65618029      15.97238996      14.42610955
C        1.88841413      15.36468894      13.85024921
H        0.58240290      15.84849652      15.51672072
H        1.96213960      15.48858612      12.75964656
H        0.58240257      17.05479331      14.24385046
H        1.96218056      14.28228737      14.03253663
6
Lattice="2.5445879 0.0 0.0 -0.0 30.0 0.0 0.0 0.0 30.0" Properties=species:S:1:pos:R:3 pbc="T T T"
C        0.64616515      15.97237998      14.42610478
C        1.89842707      15.36469947      13.85025461
H        0.60927645      15.84854326      15.51674536
H        1.93528980      15.48853306      12.75962328
H        0.60927629      17.05481165      14.24388023
H        1.93531028      14.28226869      14.03249831
6
Lattice="2.5445879 0.0 0.0 -0.0 30.0 0.0 0.0 0.0 30.0" Properties=species:S:1:pos:R:3 pbc="T T T"
C        0.63615000      15.97237000      14.42610000
C        1.90844000      15.36471000      13.85026000
H        0.63615000      15.84859000      15.51677000
H        1.90844000      15.48848000      12.75960000
H        0.63615000      17.05483000      14.24391000
H        1.90844000      14.28225000      14.03246000
6
Lattice="2.5445879 0.0 0.0 -0.0 30.0 0.0 0.0 0.0 30.0" Properties=species:S:1:pos:R:3 pbc="T T T"
C        0.62613485      15.97236002      14.42609522
C        1.91845293      15.36472053      13.85026539
H        0.66302355      15.84863674      15.51679464
H        1.88159020      15.48842694      12.75957672
H        0.66302371      17.05484835      14.24393977
H        1.88156972      14.28223131      14.03242169
6
Lattice="2.5445879 0.0 0.0 -0.0 30.0 0.0 0.0 0.0 30.0" Properties=species:S:1:pos:R:3 pbc="T T T"
C        0.61611971      15.97235004      14.42609045
C        1.92846587      15.36473106      13.85027079
H        0.68989710      15.84868348      15.51681928
H        1.85474040      15.48837388      12.75955344
H        0.68989743      17.05486669      14.24396954
H        1.85469944      14.28221263      14.03238337
6
Lattice="2.5445879 0.0 0.0 -0.0 30.0 0.0 0.0 0.0 30.0" Properties=species:S:1:pos:R:3 pbc="T T T"
C        0.60610456      15.97234006      14.42608567
C        1.93847880      15.36474159      13.85027618
H        0.71677065      15.84873022      15.51684392
H        1.82789060      15.48832082      12.75953016
H        0.71677114      17.05488504      14.24399931
H        1.82782916      14.28219394      14.03234506
6
Lattice="2.5445879 0.0 0.0 -0.0 30.0 0.0 0.0 0.0 30.0" Properties=species:S:1:pos:R:3 pbc="T T T"
C        0.59608941      15.97233008      14.42608090
C        1.94849173      15.36475211      13.85028158
H        0.74364419      15.84877695      15.51686856
H        1.80104080      15.48826776      12.75950688
H        0.74364486      17.05490339      14.24402908
H        1.80095889      14.28217525      14.03230675
6
Lattice="2.5445879 0.0 0.0 -0.0 30.0 0.0 0.0 0.0 30.0" Properties=species:S:1:pos:R:3 pbc="T T T"
C        0.58607427      15.97232010      14.42607612
C        1.95850467      15.36476264      13.85028697
H        0.77051774      15.84882369      15.51689320
H        1.77419100      15.48821470      12.75948360
H        0.77051857      17.05492174      14.24405886
H        1.77408861      14.28215656      14.03226843
6
Lattice="2.5445879 0.0 0.0 -0.0 30.0 0.0 0.0 0.0 30.0" Properties=species:S:1:pos:R:3 pbc="T T T"
C        0.57605912      15.97231012      14.42607135
C        1.96851760      15.36477317      13.85029237
H        0.79739129      15.84887043      15.51691784
H        1.74734120      15.48816164      12.75946033
H        0.79739229      17.05494008      14.24408863
H        1.74721833      14.28213788      14.03223012
