6
Lattice="2.5445879 0.0 0.0 -0.0 30.0 0.0 0.0 0.0 30.0" Properties=species:S:1:pos:R:3 pbc="T T T"
C        0.63404384      16.03145489      14.35913623
C        1.90640629      15.30535858      13.91729173
H        0.64860873      15.66902397      15.43275630
H        1.92078258      15.66866441      12.84371712
H        0.64841891      17.15239566      14.41754800
H        1.92068074      14.18457639      13.85925541
6
Lattice="2.5445879 0.0 0.0 -0.0 30.0 0.0 0.0 0.0 30.0" Properties=species:S:1:pos:R:3 pbc="T T T"
C        0.63434472      16.02301419      14.36870248
C        1.90669682      15.31383735      13.90771577
H        0.64682891      15.69467626      15.44475826
H        1.91901936      15.64292378      12.83170039
H        0.64666621      17.13845771      14.39274257
H        1.91893206      14.19852976      13.88399892
6
Lattice="2.5445879 0.0 0.0 -0.0 30.0 0.0 0.0 0.0 30.0" Properties=species:S:1:pos:R:3 pbc="T T T"
C        0.63464560      16.01457350      14.37826874
C        1.90698735      15.32231613      13.89813981
H        0.64504909      15.72032855      15.45676022
H        1.91725613      15.61718315      12.81968366
H        0.64491351      17.12451975      14.36793714
H        1.91718338      14.21248313      13.90874244
6
Lattice="2.5445879 0.0 0.0 -0.0 30.0 0.0 0.0 0.0 30.0" Properties=species:S:1:pos:R:3 pbc="T T T"
C        0.63494648      16.00613280      14.38783499
C        1.90727788      15.33079490      13.88856384
H        0.64326928      15.74598084      15.46876217
H        1.91549290      15.59144252      12.80766693
H        0.64316081      17.11058180      14.34313171
H        1.91543471      14.22643651      13.93348595
6
Lattice="2.5445879 0.0 0.0 -0.0 30.0 0.0 0.0 0.0 30.0" Properties=species:S:1:pos:R:3 pbc="T T T"
C        0.63524736      15.99769210      14.39740124
C        1.90756841      15.33927368      13.87898788
H        0.64148946      15.77163313      15.48076413
H        1.91372968      15.56570189      12.79565020
H        0.64140810      17.09664385      14.31832629
H        1.91368603      14.24038988      13.95822946
6
Lattice="2.5445879 0.0 0.0 -0.0 30.0 0.0 0.0 0.0 30.0" Properties=species:S:1:pos:R:3 pbc="T T T"
C        0.63554824      15.98925140      14.40696749
C        1.90785894      15.34775245      13.86941192
H        0.63970964      15.79728542      15.49276609
H        1.91196645      15.53996126      12.78363346
H        0.63965540      17.08270590      14.29352086
H        1.91193735      14.25434325      13.98297297
6
Lattice="2.5445879 0.0 0.0 -0.0 30.0 0.0 0.0 0.0 30.0" Properties=species:S:1:pos:R:3 pbc="T T T"
C        0.63584912      15.98081070      14.41653375
C        1.90814947      15.35623123      13.85983596
H        0.63792982      15.82293771      15.50476804
H        1.91020323      15.51422063      12.77161673
H        0.63790270      17.06876795      14.26871543
H        1.91018868      14.26829663      14.00771649
6
Lattice="2.5445879 0.0 0.0 -0.0 30.0 0.0 0.0 0.0 30.0" Properties=species:S:1:pos:R:3 pbc="T T T"
C        0.63615000      15.97237000      14.42610000
C        1.90844000      15.36471000      13.85026000
H        0.63615000      15.84859000      15.51677000
H        1.90844000      15.48848000      12.75960000
H        0.63615000      17.05483000      14.24391000
H        1.90844000      14.28225000      14.03246000
6
Lattice="2.5445879 0.0 0.0 -0.0 30.0 0.0 0.0 0.0 30.0" Properties=species:S:1:pos:R:3 pbc="T T T"
C        0.63645088      15.96392930      14.43566625
C        1.90873053      15.37318877      13.84068404
H        0.63437018      15.87424229      15.52877196
H        1.90667677      15.46273937      12.74758327
H        0.63439730      17.04089205      14.21910457
H        1.90669132      14.29620337      14.05720351
6
Lattice="2.5445879 0.0 0.0 -0.0 30.0 0.0 0.0 0.0 30.0" Properties=species:S:1:pos:R:3 pbc="T T T"
C        0.63675176      15.95548860      14.44523251
C        1.90902106      15.38166755      13.83110808
H        0.63259036      15.89989458      15.54077391
H        1.90491355      15.43699874      12.73556654
H        0.63264460      17.02695410      14.19429914
H        1.90494265      14.31015675      14.08194703
6
Lattice="2.5445879 0.0 0.0 -0.0 30.0 0.0 0.0 0.0 30.0" Properties=species:S:1:pos:R:3 pbc="T T T"
C        0.63705264      15.94704790      14.45479876
C        1.90931159      15.39014632      13.82153212
H        0.63081054      15.92554687      15.55277587
H        1.90315032      15.41125811      12.72354980
H        0.63089190      17.01301615      14.16949371
H        1.90319397      14.32411012      14.10669054
6
Lattice="2.5445879 0.0 0.0 -0.0 30.0 0.0 0.0 0.0 30.0" Properties=species:S:1:pos:R:3 pbc="T T T"
C        0.63735352      15.93860720      14.46436501
C        1.90960212      15.39862510      13.81195616
H        0.62903072      15.95119916      15.56477783
H        1.90138710      15.38551748      12.71153307
H        0.62913919      16.99907820      14.14468829
H        1.90144529      14.33806349      14.13143405
6
Lattice="2.5445879 0.0 0.0 -0.0 30.0 0.0 0.0 0.0 30.0" Properties=species:S:1:pos:R:3 pbc="T T T"
C        0.63765440      15.93016650      14.47393126
C        1.90989265      15.40710387      13.80238019
H        0.62725091      15.97685145      15.57677978
H        1.89962387      15.35977685      12.69951634
H        0.62738649      16.98514025      14.11988286
H        1.89969662      14.35201687      14.15617756
6
Lattice="2.5445879 0.0 0.0 -0.0 30.0 0.0 0.0 0.0 30.0" Properties=species:S:1:pos:R:3 pbc="T T T"
C        0.63795528      15.92172581      14.48349752
C        1.91018318      15.41558265      13.79280423
H        0.62547109      16.00250374      15.58878174
H        1.89786064      15.33403622      12.68749961
H        0.62563379      16.97120229      14.09507743
H        1.89794794      14.36597024      14.18092108
6
Lattice="2.5445879 0.0 0.0 -0.0 30.0 0.0 0.0 0.0 30.0" Properties=species:S:1:pos:R:3 pbc="T T T"
C        0.63825616      15.91328511      14.49306377
C        1.91047371      15.42406142      13.78322827
H        0.62369127      16.02815603      15.60078370
H        1.89609742      15.30829559      12.67548288
H        0.62388109      16.95726434      14.07027200
H        1.89619926      14.37992361      14.20566459
6
Lattice="2.5445879 0.0 0.0 -0.0 30.0 0.0 0.0 0.0 30.0" Properties=species:S:1:pos:R:3 pbc="T T T"
C        0.63795528      15.92172581      14.48349752
C        1.91018318      15.41558265      13.79280423
H        0.62547109      16.00250374      15.58878174
H        1.89786064      15.33403622      12.68749961
H        0.62563379      16.97120229      14.09507743
H        1.89794794      14.36597024      14.18092108
6
Lattice="2.5445879 0.0 0.0 -0.0 30.0 0.0 0.0 0.0 30.0" Properties=species:S:1:pos:R:3 pbc="T T T"
C        0.63765440      15.93016650      14.47393126
C        1.90989265      15.40710387      13.80238019
H        0.62725091      15.97685145      15.57677978
H        1.89962387      15.35977685      12.69951634
H        0.62738649      16.98514025      14.11988286
H        1.89969662      14.35201687      14.15617756
6
Lattice="2.5445879 0.0 0.0 -0.0 30.0 0.0 0.0 0.0 30.0" Properties=species:S:1:pos:R:3 pbc="T T T"
C        0.63735352      15.93860720      14.46436501
C        1.90960212      15.39862510      13.81195616
H        0.62903072      15.95119916      15.56477783
H        1.90138710      15.38551748      12.71153307
H        0.62913919      16.99907820      14.14468829
H        1.90144529      14.33806349      14.13143405
6
Lattice="2.5445879 0.0 0.0 -0.0 30.0 0.0 0.0 0.0 30.0" Properties=species:S:1:pos:R:3 pbc="T T T"
C        0.63705264      15.94704790      14.45479876
C        1.90931159      15.39014632      13.82153212
H        0.63081054      15.92554687      15.55277587
H        1.90315032      15.41125811      12.72354980
H        0.63089190      17.01301615      14.16949371
H        1.90319397      14.32411012      14.10669054
6
Lattice="2.5445879 0.0 0.0 -0.0 30.0 0.0 0.0 0.0 30.0" Properties=species:S:1:pos:R:3 pbc="T T T"
C        0.63675176      15.95548860      14.44523251
C        1.90902106      15.38166755      13.83110808
H        0.63259036      15.89989458      15.54077391
H        1.90491355      15.43699874      12.73556654
H        0.63264460      17.02695410      14.19429914
H        1.90494265      14.31015675      14.08194703
6
Lattice="2.5445879 0.0 0.0 -0.0 30.0 0.0 0.0 0.0 30.0" Properties=species:S:1:pos:R:3 pbc="T T T"
C        0.63645088      15.96392930      14.43566625
C        1.90873053      15.37318877      13.84068404
H        0.63437018      15.87424229      15.52877196
H        1.90667677      15.46273937      12.74758327
H        0.63439730      17.04089205      14.21910457
H        1.90669132      14.29620337      14.05720351
6
Lattice="2.5445879 0.0 0.0 -0.0 30.0 0.0 0.0 0.0 30.0" Properties=species:S:1:pos:R:3 pbc="T T T"
C        0.63615000      15.97237000      14.42610000
C        1.90844000      15.36471000      13.85026000
H        0.63615000      15.84859000      15.51677000
H        1.90844000      15.48848000      12.75960000
H        0.63615000      17.05483000      14.24391000
H        1.90844000      14.28225000      14.03246000
6
Lattice="2.5445879 0.0 0.0 -0.0 30.0 0.0 0.0 0.0 30.0" Properties=species:S:1:pos:R:3 pbc="T T T"
C        0.63584912      15.98081070      14.41653375
C        1.90814947      15.35623123      13.85983596
H        0.63792982      15.82293771      15.50476804
H        1.91020323      15.51422063      12.77161673
H        0.63790270      17.06876795      14.26871543
H        1.91018868      14.26829663      14.00771649
6
Lattice="2.5445879 0.0 0.0 -0.0 30.0 0.0 0.0 0.0 30.0" Properties=species:S:1:pos:R:3 pbc="T T T"
C        0.63554824      15.98925140      14.40696749
C        1.90785894      15.34775245      13.86941192
H        0.63970964      15.79728542      15.49276609
H        1.91196645      15.53996126      12.78363346
H        0.63965540      17.08270590      14.29352086
H        1.91193735      14.25434325      13.98297297
6
Lattice="2.5445879 0.0 0.0 -0.0 30.0 0.0 0.0 0.0 30.0" Properties=species:S:1:pos:R:3 pbc="T T T"
C        0.63524736      15.99769210      14.39740124
C        1.90756841      15.33927368      13.87898788
H        0.64148946      15.77163313      15.48076413
H        1.91372968      15.56570189      12.79565020
H        0.64140810      17.09664385      14.31832629
H        1.91368603      14.24038988      13.95822946
6
Lattice="2.5445879 0.0 0.0 -0.0 30.0 0.0 0.0 0.0 30.0" Properties=species:S:1:pos:R:3 pbc="T T T"
C        0.63494648      16.00613280      14.38783499
C        1.90727788      15.33079490      13.88856384
H        0.64326928      15.74598084      15.46876217
H        1.91549290      15.59144252      12.80766693
H        0.64316081      17.11058180      14.34313171
H        1.91543471      14.22643651      13.93348595
6
Lattice="2.5445879 0.0 0.0 -0.0 30.0 0.0 0.0 0.0 30.0" Properties=species:S:1:pos:R:3 pbc="T T T"
C        0.63464560      16.01457350      14.37826874
C        1.90698735      15.32231613      13.89813981
H        0.64504909      15.72032855      15.45676022
H        1.91725613      15.61718315      12.81968366
H        0.64491351      17.12451975      14.36793714
H        1.91718338      14.21248313      13.90874244
6
Lattice="2.5445879 0.0 0.0 -0.0 30.0 0.0 0.0 0.0 30.0" Properties=species:S:1:pos:R:3 pbc="T T T"
C        0.63434472      16.02301419      14.36870248
C        1.90669682      15.31383735      13.90771577
H        0.64682891      15.69467626      15.44475826
H        1.91901936      15.64292378      12.83170039
H        0.64666621      17.13845771      14.39274257
H        1.91893206      14.19852976      13.88399892
