6
Lattice="2.5445879 0.0 0.0 -0.0 30.0 0.0 0.0 0.0 30.0" Properties=species:S:1:pos:R:3 pbc="T T T"
C        0.63618646      15.95947839      14.41422439
C        1.90833829      15.37796493      13.86252539
H        0.63619153      16.03391942      15.53398750
H        1.90884262      15.29920118      12.74204740
H        0.63615958      17.08146291      14.42704147
H        1.90888268      14.25515573      13.84523255
6
Lattice="2.5445879 0.0 0.0 -0.0 30.0 0.0 0.0 0.0 30.0" Properties=species:S:1:pos:R:3 pbc="T T T"
C        0.63618125      15.96132005      14.41592090
C        1.90835282      15.37607137      13.86077319
H        0.63618560      16.00744379      15.53152785
H        1.90878511      15.32624101      12.74455491
H        0.63615822      17.07765821      14.40087983
H        1.90881944      14.25902634      13.87197932
6
Lattice="2.5445879 0.0 0.0 -0.0 30.0 0.0 0.0 0.0 30.0" Properties=species:S:1:pos:R:3 pbc="T T T"
C        0.63617604      15.96316171      14.41761742
C        1.90836735      15.37417781      13.85902099
H        0.63617966      15.98096815      15.52906821
H        1.90872759      15.35328085      12.74706243
H        0.63615685      17.07385351      14.37471819
H        1.90875620      14.26289695      13.89872610
6
Lattice="2.5445879 0.0 0.0 -0.0 30.0 0.0 0.0 0.0 30.0" Properties=species:S:1:pos:R:3 pbc="T T T"
C        0.63617083      15.96500337      14.41931393
C        1.90838188      15.37228425      13.85726880
H        0.63617373      15.95449252      15.52660857
H        1.90867007      15.38032068      12.74956994
H        0.63615548      17.07004881      14.34855655
H        1.90869296      14.26676756      13.92547288
6
Lattice="2.5445879 0.0 0.0 -0.0 30.0 0.0 0.0 0.0 30.0" Properties=species:S:1:pos:R:3 pbc="T T T"
C        0.63616563      15.96684503      14.42101045
C        1.90839641      15.37039068      13.85551660
H        0.63616780      15.92801689      15.52414893
H        1.90861255      15.40736051      12.75207746
H        0.63615411      17.06624410      14.32239492
H        1.90862972      14.27063817      13.95221966
6
Lattice="2.5445879 0.0 0.0 -0.0 30.0 0.0 0.0 0.0 30.0" Properties=species:S:1:pos:R:3 pbc="T T T"
C        0.63616042      15.96868668      14.42270697
C        1.90841094      15.36849712      13.85376440
H        0.63616187      15.90154126      15.52168928
H        1.90855504      15.43440034      12.75458497
H        0.63615274      17.06243940      14.29623328
H        1.90856648      14.27450878      13.97896644
6
Lattice="2.5445879 0.0 0.0 -0.0 30.0 0.0 0.0 0.0 30.0" Properties=species:S:1:pos:R:3 pbc="T T T"
C        0.63615521      15.97052834      14.42440348
C        1.90842547      15.36660356      13.85201220
H        0.63615593      15.87506563      15.51922964
H        1.90849752      15.46144017      12.75709249
H        0.63615137      17.05863470      14.27007164
H        1.90850324      14.27837939      14.00571322
6
Lattice="2.5445879 0.0 0.0 -0.0 30.0 0.0 0.0 0.0 30.0" Properties=species:S:1:pos:R:3 pbc="T T T"
C        0.63615000      15.97237000      14.42610000
C        1.90844000      15.36471000      13.85026000
H        0.63615000      15.84859000      15.51677000
H        1.90844000      15.48848000      12.75960000
H        0.63615000      17.05483000      14.24391000
H        1.90844000      14.28225000      14.03246000
6
Lattice="2.5445879 0.0 0.0 -0.0 30.0 0.0 0.0 0.0 30.0" Properties=species:S:1:pos:R:3 pbc="T T T"
C        0.63614479      15.97421166      14.42779652
C        1.90845453      15.36281644      13.84850780
H        0.63614407      15.82211437      15.51431036
H        1.90838248      15.51551983      12.76210751
H        0.63614863      17.05102530      14.21774836
H        1.90837676      14.28612061      14.05920678
6
Lattice="2.5445879 0.0 0.0 -0.0 30.0 0.0 0.0 0.0 30.0" Properties=species:S:1:pos:R:3 pbc="T T T"
C        0.63613958      15.97605332      14.42949303
C        1.90846906      15.36092288      13.84675560
H        0.63613813      15.79563874      15.51185072
H        1.90832496      15.54255966      12.76461503
H        0.63614726      17.04722060      14.19158672
H        1.90831352      14.28999122      14.08595356
6
Lattice="2.5445879 0.0 0.0 -0.0 30.0 0.0 0.0 0.0 30.0" Properties=species:S:1:pos:R:3 pbc="T T T"
C        0.63613437      15.97789497      14.43118955
C        1.90848359      15.35902932      13.84500340
H        0.63613220      15.76916311      15.50939107
H        1.90826745      15.56959949      12.76712254
H        0.63614589      17.04341590      14.16542508
H        1.90825028      14.29386183      14.11270034
6
Lattice="2.5445879 0.0 0.0 -0.0 30.0 0.0 0.0 0.0 30.0" Properties=species:S:1:pos:R:3 pbc="T T T"
C        0.63612917      15.97973663      14.43288607
C        1.90849812      15.35713575      13.84325120
H        0.63612627      15.74268748      15.50693143
H        1.90820993      15.59663932      12.76963006
H        0.63614452      17.03961119      14.13926345
H        1.90818704      14.29773244      14.13944712
6
Lattice="2.5445879 0.0 0.0 -0.0 30.0 0.0 0.0 0.0 30.0" Properties=species:S:1:pos:R:3 pbc="T T T"
C        0.63612396      15.98157829      14.43458258
C        1.90851265      15.35524219      13.84149901
H        0.63612034      15.71621185      15.50447179
H        1.90815241      15.62367915      12.77213757
H        0.63614315      17.03580649      14.11310181
H        1.90812380      14.30160305      14.16619390
6
Lattice="2.5445879 0.0 0.0 -0.0 30.0 0.0 0.0 0.0 30.0" Properties=species:S:1:pos:R:3 pbc="T T T"
C        0.63611875      15.98341995      14.43627910
C        1.90852718      15.35334863      13.83974681
H        0.63611440      15.68973621      15.50201215
H        1.90809489      15.65071899      12.77464509
H        0.63614178      17.03200179      14.08694017
H        1.90806056      14.30547366      14.19294068
6
Lattice="2.5445879 0.0 0.0 -0.0 30.0 0.0 0.0 0.0 30.0" Properties=species:S:1:pos:R:3 pbc="T T T"
C        0.63611354      15.98526161      14.43797561
C        1.90854171      15.35145507      13.83799461
H        0.63610847      15.66326058      15.49955250
H        1.90803738      15.67775882      12.77715260
H        0.63614042      17.02819709      14.06077853
H        1.90799732      14.30934427      14.21968745
6
Lattice="2.5445879 0.0 0.0 -0.0 30.0 0.0 0.0 0.0 30.0" Properties=species:S:1:pos:R:3 pbc="T T T"
C        0.63611875      15.98341995      14.43627910
C        1.90852718      15.35334863      13.83974681
H        0.63611440      15.68973621      15.50201215
H        1.90809489      15.65071899      12.77464509
H        0.63614178      17.03200179      14.08694017
H        1.90806056      14.30547366      14.19294068
6
Lattice="2.5445879 0.0 0.0 -0.0 30.0 0.0 0.0 0.0 30.0" Properties=species:S:1:pos:R:3 pbc="T T T"
C        0.63612396      15.98157829      14.43458258
C        1.90851265      15.35524219      13.84149901
H        0.63612034      15.71621185      15.50447179
H        1.90815241      15.62367915      12.77213757
H        0.63614315      17.03580649      14.11310181
H        1.90812380      14.30160305      14.16619390
6
Lattice="2.5445879 0.0 0.0 -0.0 30.0 0.0 0.0 0.0 30.0" Properties=species:S:1:pos:R:3 pbc="T T T"
C        0.63612917      15.97973663      14.43288607
C        1.90849812      15.35713575      13.84325120
H        0.63612627      15.74268748      15.50693143
H        1.90820993      15.59663932      12.76963006
H        0.63614452      17.03961119      14.13926345
H        1.90818704      14.29773244      14.13944712
6
Lattice="2.5445879 0.0 0.0 -0.0 30.0 0.0 0.0 0.0 30.0" Properties=species:S:1:pos:R:3 pbc="T T T"
C        0.63613437      15.97789497      14.43118955
C        1.90848359      15.35902932      13.84500340
H        0.63613220      15.76916311      15.50939107
H        1.90826745      15.56959949      12.76712254
H        0.63614589      17.04341590      14.16542508
H        1.90825028      14.29386183      14.11270034
6
Lattice="2.5445879 0.0 0.0 -0.0 30.0 0.0 0.0 0.0 30.0" Properties=species:S:1:pos:R:3 pbc="T T T"
C        0.63613958      15.97605332      14.42949303
C        1.90846906      15.36092288      13.84675560
H        0.63613813      15.79563874      15.51185072
H        1.90832496      15.54255966      12.76461503
H        0.63614726      17.04722060      14.19158672
H        1.90831352      14.28999122      14.08595356
6
Lattice="2.5445879 0.0 0.0 -0.0 30.0 0.0 0.0 0.0 30.0" Properties=species:S:1:pos:R:3 pbc="T T T"
C        0.63614479      15.97421166      14.42779652
C        1.90845453      15.36281644      13.84850780
H        0.63614407      15.82211437      15.51431036
H        1.90838248      15.51551983      12.76210751
H        0.63614863      17.05102530      14.21774836
H        1.90837676      14.28612061      14.05920678
6
Lattice="2.5445879 0.0 0.0 -0.0 30.0 0.0 0.0 0.0 30.0" Properties=species:S:1:pos:R:3 pbc="T T T"
C        0.63615000      15.97237000      14.42610000
C        1.90844000      15.36471000      13.85026000
H        0.63615000      15.84859000      15.51677000
H        1.90844000      15.48848000      12.75960000
H        0.63615000      17.05483000      14.24391000
H        1.90844000      14.28225000      14.03246000
6
Lattice="2.5445879 0.0 0.0 -0.0 30.0 0.0 0.0 0.0 30.0" Properties=species:S:1:pos:R:3 pbc="T T T"
C        0.63615521      15.97052834      14.42440348
C        1.90842547      15.36660356      13.85201220
H        0.63615593      15.87506563      15.51922964
H        1.90849752      15.46144017      12.75709249
H        0.63615137      17.05863470      14.27007164
H        1.90850324      14.27837939      14.00571322
6
Lattice="2.5445879 0.0 0.0 -0.0 30.0 0.0 0.0 0.0 30.0" Properties=species:S:1:pos:R:3 pbc="T T T"
C        0.63616042      15.96868668      14.42270697
C        1.90841094      15.36849712      13.85376440
H        0.63616187      15.90154126      15.52168928
H        1.90855504      15.43440034      12.75458497
H        0.63615274      17.06243940      14.29623328
H        1.90856648      14.27450878      13.97896644
6
Lattice="2.5445879 0.0 0.0 -0.0 30.0 0.0 0.0 0.0 30.0" Properties=species:S:1:pos:R:3 pbc="T T T"
C        0.63616563      15.96684503      14.42101045
C        1.90839641      15.37039068      13.85551660
H        0.63616780      15.92801689      15.52414893
H        1.90861255      15.40736051      12.75207746
H        0.63615411      17.06624410      14.32239492
H        1.90862972      14.27063817      13.95221966
6
Lattice="2.5445879 0.0 0.0 -0.0 30.0 0.0 0.0 0.0 30.0" Properties=species:S:1:pos:R:3 pbc="T T T"
C        0.63617083      15.96500337      14.41931393
C        1.90838188      15.37228425      13.85726880
H        0.63617373      15.95449252      15.52660857
H        1.90867007      15.38032068      12.74956994
H        0.63615548      17.07004881      14.34855655
H        1.90869296      14.26676756      13.92547288
6
Lattice="2.5445879 0.0 0.0 -0.0 30.0 0.0 0.0 0.0 30.0" Properties=species:S:1:pos:R:3 pbc="T T T"
C        0.63617604      15.96316171      14.41761742
C        1.90836735      15.37417781      13.85902099
H        0.63617966      15.98096815      15.52906821
H        1.90872759      15.35328085      12.74706243
H        0.63615685      17.07385351      14.37471819
H        1.90875620      14.26289695      13.89872610
6
Lattice="2.5445879 0.0 0.0 -0.0 30.0 0.0 0.0 0.0 30.0" Properties=species:S:1:pos:R:3 pbc="T T T"
C        0.63618125      15.96132005      14.41592090
C        1.90835282      15.37607137      13.86077319
H        0.63618560      16.00744379      15.53152785
H        1.90878511      15.32624101      12.74455491
H        0.63615822      17.07765821      14.40087983
H        1.90881944      14.25902634      13.87197932
