6
Lattice="2.5445879 0.0 0.0 -0.0 30.0 0.0 0.0 0.0 30.0" Properties=species:S:1:pos:R:3 pbc="T T T"
C        0.60122679      15.97080424      14.42881457
C        1.87357081      15.36628714      13.84753606
H        0.84409358      15.85486198      15.51898171
H        2.11631120      15.48217569      12.75739487
H        0.84379062      17.05084906      14.23815073
H        2.11664664      14.28623394      14.03825366
6
Lattice="2.5445879 0.0 0.0 -0.0 30.0 0.0 0.0 0.0 30.0" Properties=species:S:1:pos:R:3 pbc="T T T"
C        0.60621582      15.97102792      14.42842677
C        1.87855212      15.36606183      13.84792520
H        0.81438736      15.85396598      15.51866575
H        2.08661532      15.48307630      12.75770989
H        0.81412768      17.05141776      14.23897349
H        2.08690283      14.28566480      14.03742600
6
Lattice="2.5445879 0.0 0.0 -0.0 30.0 0.0 0.0 0.0 30.0" Properties=species:S:1:pos:R:3 pbc="T T T"
C        0.61120485      15.97125160      14.42803898
C        1.88353344      15.36583653      13.84831433
H        0.78468113      15.85306999      15.51834979
H        2.05691943      15.48397692      12.75802491
H        0.78446473      17.05198647      14.23979624
H        2.05715903      14.28509567      14.03659833
6
Lattice="2.5445879 0.0 0.0 -0.0 30.0 0.0 0.0 0.0 30.0" Properties=species:S:1:pos:R:3 pbc="T T T"
C        0.61619388      15.97147528      14.42765118
C        1.88851475      15.36561122      13.84870346
H        0.75497490      15.85217399      15.51803383
H        2.02722354      15.48487754      12.75833993
H        0.75480178      17.05255517      14.24061899
H        2.02741522      14.28452654      14.03577066
6
Lattice="2.5445879 0.0 0.0 -0.0 30.0 0.0 0.0 0.0 30.0" Properties=species:S:1:pos:R:3 pbc="T T T"
C        0.62118291      15.97169896      14.42726339
C        1.89349606      15.36538592      13.84909260
H        0.72526868      15.85127799      15.51771787
H        1.99752766      15.48577815      12.75865495
H        0.72513884      17.05312388      14.24144174
H        1.99767142      14.28395740      14.03494300
6
Lattice="2.5445879 0.0 0.0 -0.0 30.0 0.0 0.0 0.0 30.0" Properties=species:S:1:pos:R:3 pbc="T T T"
C        0.62617194      15.97192264      14.42687559
C        1.89847737      15.36516061      13.84948173
H        0.69556245      15.85038199      15.51740192
H        1.96783177      15.48667877      12.75896996
H        0.69547589      17.05369259      14.24226450
H        1.96792761      14.28338827      14.03411533
6
Lattice="2.5445879 0.0 0.0 -0.0 30.0 0.0 0.0 0.0 30.0" Properties=species:S:1:pos:R:3 pbc="T T T"
C        0.63116097      15.97214632      14.42648780
C        1.90345869      15.36493531      13.84987087
H        0.66585623      15.84948600      15.51708596
H        1.93813589      15.48757938      12.75928498
H        0.66581295      17.05426129      14.24308725
H        1.93818381      14.28281913      14.03328767
6
Lattice="2.5445879 0.0 0.0 -0.0 30.0 0.0 0.0 0.0 30.0" Properties=species:S:1:pos:R:3 pbc="T T T"
C        0.63615000      15.97237000      14.42610000
C        1.90844000      15.36471000      13.85026000
H        0.63615000      15.84859000      15.51677000
H        1.90844000      15.48848000      12.75960000
H        0.63615000      17.05483000      14.24391000
H        1.90844000      14.28225000      14.03246000
6
Lattice="2.5445879 0.0 0.0 -0.0 30.0 0.0 0.0 0.0 30.0" Properties=species:S:1:pos:R:3 pbc="T T T"
C        0.64113903      15.97259368      14.42571220
C        1.91342131      15.36448469      13.85064913
H        0.60644377      15.84769400      15.51645404
H        1.87874411      15.48938062      12.75991502
H        0.60648705      17.05539871      14.24473275
H        1.87869619      14.28168087      14.03163233
6
Lattice="2.5445879 0.0 0.0 -0.0 30.0 0.0 0.0 0.0 30.0" Properties=species:S:1:pos:R:3 pbc="T T T"
C        0.64612806      15.97281736      14.42532441
C        1.91840263      15.36425939      13.85103827
H        0.57673755      15.84679801      15.51613808
H        1.84904823      15.49028123      12.76023004
H        0.57682411      17.05596741      14.24555550
H        1.84895239      14.28111173      14.03080467
6
Lattice="2.5445879 0.0 0.0 -0.0 30.0 0.0 0.0 0.0 30.0" Properties=species:S:1:pos:R:3 pbc="T T T"
C        0.65111709      15.97304104      14.42493661
C        1.92338394      15.36403408      13.85142740
H        0.54703132      15.84590201      15.51582213
H        1.81935234      15.49118185      12.76054505
H        0.54716116      17.05653612      14.24637826
H        1.81920858      14.28054260      14.02997700
6
Lattice="2.5445879 0.0 0.0 -0.0 30.0 0.0 0.0 0.0 30.0" Properties=species:S:1:pos:R:3 pbc="T T T"
C        0.65610612      15.97326472      14.42454882
C        1.92836525      15.36380878      13.85181654
H        0.51732510      15.84500601      15.51550617
H        1.78965646      15.49208246      12.76086007
H        0.51749822      17.05710483      14.24720101
H        1.78946478      14.27997346      14.02914934
6
Lattice="2.5445879 0.0 0.0 -0.0 30.0 0.0 0.0 0.0 30.0" Properties=species:S:1:pos:R:3 pbc="T T T"
C        0.66109515      15.97348840      14.42416102
C        1.93334656      15.36358347      13.85220567
H        0.48761887      15.84411001      15.51519021
H        1.75996057      15.49298308      12.76117509
H        0.48783527      17.05767353      14.24802376
H        1.75972097      14.27940433      14.02832167
6
Lattice="2.5445879 0.0 0.0 -0.0 30.0 0.0 0.0 0.0 30.0" Properties=species:S:1:pos:R:3 pbc="T T T"
C        0.66608418      15.97371208      14.42377323
C        1.93832788      15.36335817      13.85259480
H        0.45791264      15.84321402      15.51487425
H        1.73026468      15.49388370      12.76149011
H        0.45817232      17.05824224      14.24884651
H        1.72997717      14.27883520      14.02749400
6
Lattice="2.5445879 0.0 0.0 -0.0 30.0 0.0 0.0 0.0 30.0" Properties=species:S:1:pos:R:3 pbc="T T T"
C        0.67107321      15.97393576      14.42338543
C        1.94330919      15.36313286      13.85298394
H        0.42820642      15.84231802      15.51455829
H        1.70056880      15.49478431      12.76180513
H        0.42850938      17.05881094      14.24966927
H        1.70023336      14.27826606      14.02666634
6
Lattice="2.5445879 0.0 0.0 -0.0 30.0 0.0 0.0 0.0 30.0" Properties=species:S:1:pos:R:3 pbc="T T T"
C        0.66608418      15.97371208      14.42377323
C        1.93832788      15.36335817      13.85259480
H        0.45791264      15.84321402      15.51487425
H        1.73026468      15.49388370      12.76149011
H        0.45817232      17.05824224      14.24884651
H        1.72997717      14.27883520      14.02749400
6
Lattice="2.5445879 0.0 0.0 -0.0 30.0 0.0 0.0 0.0 30.0" Properties=species:S:1:pos:R:3 pbc="T T T"
C        0.66109515      15.97348840      14.42416102
C        1.93334656      15.36358347      13.85220567
H        0.48761887      15.84411001      15.51519021
H        1.75996057      15.49298308      12.76117509
H        0.48783527      17.05767353      14.24802376
H        1.75972097      14.27940433      14.02832167
6
Lattice="2.5445879 0.0 0.0 -0.0 30.0 0.0 0.0 0.0 30.0" Properties=species:S:1:pos:R:3 pbc="T T T"
C        0.65610612      15.97326472      14.42454882
C        1.92836525      15.36380878      13.85181654
H        0.51732510      15.84500601      15.51550617
H        1.78965646      15.49208246      12.76086007
H        0.51749822      17.05710483      14.24720101
H        1.78946478      14.27997346      14.02914934
6
Lattice="2.5445879 0.0 0.0 -0.0 30.0 0.0 0.0 0.0 30.0" Properties=species:S:1:pos:R:3 pbc="T T T"
C        0.65111709      15.97304104      14.42493661
C        1.92338394      15.36403408      13.85142740
H        0.54703132      15.84590201      15.51582213
H        1.81935234      15.49118185      12.76054505
H        0.54716116      17.05653612      14.24637826
H        1.81920858      14.28054260      14.02997700
6
Lattice="2.5445879 0.0 0.0 -0.0 30.0 0.0 0.0 0.0 30.0" Properties=species:S:1:pos:R:3 pbc="T T T"
C        0.64612806      15.97281736      14.42532441
C        1.91840263      15.36425939      13.85103827
H        0.57673755      15.84679801      15.51613808
H        1.84904823      15.49028123      12.76023004
H        0.57682411      17.05596741      14.24555550
H        1.84895239      14.28111173      14.03080467
6
Lattice="2.5445879 0.0 0.0 -0.0 30.0 0.0 0.0 0.0 30.0" Properties=species:S:1:pos:R:3 pbc="T T T"
C        0.64113903      15.97259368      14.42571220
C        1.91342131      15.36448469      13.85064913
H        0.60644377      15.84769400      15.51645404
H        1.87874411      15.48938062      12.75991502
H        0.60648705      17.05539871      14.24473275
H        1.87869619      14.28168087      14.03163233
6
Lattice="2.5445879 0.0 0.0 -0.0 30.0 0.0 0.0 0.0 30.0" Properties=species:S:1:pos:R:3 pbc="T T T"
C        0.63615000      15.97237000      14.42610000
C        1.90844000      15.36471000      13.85026000
H        0.63615000      15.84859000      15.51677000
H        1.90844000      15.48848000      12.75960000
H        0.63615000      17.05483000      14.24391000
H        1.90844000      14.28225000      14.03246000
6
Lattice="2.5445879 0.0 0.0 -0.0 30.0 0.0 0.0 0.0 30.0" Properties=species:S:1:pos:R:3 pbc="T T T"
C        0.63116097      15.97214632      14.42648780
C        1.90345869      15.36493531      13.84987087
H        0.66585623      15.84948600      15.51708596
H        1.93813589      15.48757938      12.75928498
H        0.66581295      17.05426129      14.24308725
H        1.93818381      14.28281913      14.03328767
6
Lattice="2.5445879 0.0 0.0 -0.0 30.0 0.0 0.0 0.0 30.0" Properties=species:S:1:pos:R:3 pbc="T T T"
C        0.62617194      15.97192264      14.42687559
C        1.89847737      15.36516061      13.84948173
H        0.69556245      15.85038199      15.51740192
H        1.96783177      15.48667877      12.75896996
H        0.69547589      17.05369259      14.24226450
H        1.96792761      14.28338827      14.03411533
6
Lattice="2.5445879 0.0 0.0 -0.0 30.0 0.0 0.0 0.0 30.0" Properties=species:S:1:pos:R:3 pbc="T T T"
C        0.62118291      15.97169896      14.42726339
C        1.89349606      15.36538592      13.84909260
H        0.72526868      15.85127799      15.51771787
H        1.99752766      15.48577815      12.75865495
H        0.72513884      17.05312388      14.24144174
H        1.99767142      14.28395740      14.03494300
6
Lattice="2.5445879 0.0 0.0 -0.0 30.0 0.0 0.0 0.0 30.0" Properties=species:S:1:pos:R:3 pbc="T T T"
C        0.61619388      15.97147528      14.42765118
C        1.88851475      15.36561122      13.84870346
H        0.75497490      15.85217399      15.51803383
H        2.02722354      15.48487754      12.75833993
H        0.75480178      17.05255517      14.24061899
H        2.02741522      14.28452654      14.03577066
6
Lattice="2.5445879 0.0 0.0 -0.0 30.0 0.0 0.0 0.0 30.0" Properties=species:S:1:pos:R:3 pbc="T T T"
C        0.61120485      15.97125160      14.42803898
C        1.88353344      15.36583653      13.84831433
H        0.78468113      15.85306999      15.51834979
H        2.05691943      15.48397692      12.75802491
H        0.78446473      17.05198647      14.23979624
H        2.05715903      14.28509567      14.03659833
6
Lattice="2.5445879 0.0 0.0 -0.0 30.0 0.0 0.0 0.0 30.0" Properties=species:S:1:pos:R:3 pbc="T T T"
C        0.60621582      15.97102792      14.42842677
C        1.87855212      15.36606183      13.84792520
H        0.81438736      15.85396598      15.51866575
H        2.08661532      15.48307630      12.75770989
H        0.81412768      17.05141776      14.23897349
H        2.08690283      14.28566480      14.03742600
