6
Lattice="2.5445879 0.0 0.0 -0.0 30.0 0.0 0.0 0.0 30.0" Properties=species:S:1:pos:R:3 pbc="T T T"
C        0.63558748      15.97243128      14.42613540
C        1.90900511      15.36464802      13.85022522
H        0.41390428      15.84858869      15.51681845
H        1.68859615      15.48849180      12.75955311
H        0.85596163      17.05491849      14.24397207
H        2.13069042      14.28216225      14.03239486
6
Lattice="2.5445879 0.0 0.0 -0.0 30.0 0.0 0.0 0.0 30.0" Properties=species:S:1:pos:R:3 pbc="T T T"
C        0.63566784      15.97242253      14.42613035
C        1.90892438      15.36465687      13.85023018
H        0.44565367      15.84858887      15.51681153
H        1.72000241      15.48849011      12.75955981
H        0.82455997      17.05490584      14.24396321
H        2.09894036      14.28217478      14.03240417
6
Lattice="2.5445879 0.0 0.0 -0.0 30.0 0.0 0.0 0.0 30.0" Properties=species:S:1:pos:R:3 pbc="T T T"
C        0.63574820      15.97241377      14.42612529
C        1.90884365      15.36466573      13.85023515
H        0.47740306      15.84858906      15.51680461
H        1.75140868      15.48848843      12.75956651
H        0.79315831      17.05489320      14.24395434
H        2.06719030      14.28218732      14.03241347
6
Lattice="2.5445879 0.0 0.0 -0.0 30.0 0.0 0.0 0.0 30.0" Properties=species:S:1:pos:R:3 pbc="T T T"
C        0.63582856      15.97240502      14.42612023
C        1.90876292      15.36467458      13.85024012
H        0.50915245      15.84858925      15.51679768
H        1.78281494      15.48848674      12.75957320
H        0.76175665      17.05488056      14.24394547
H        2.03544024      14.28219985      14.03242278
6
Lattice="2.5445879 0.0 0.0 -0.0 30.0 0.0 0.0 0.0 30.0" Properties=species:S:1:pos:R:3 pbc="T T T"
C        0.63590892      15.97239626      14.42611517
C        1.90868219      15.36468344      13.85024509
H        0.54090184      15.84858944      15.51679076
H        1.81422121      15.48848506      12.75957990
H        0.73035498      17.05486792      14.24393660
H        2.00369018      14.28221239      14.03243208
6
Lattice="2.5445879 0.0 0.0 -0.0 30.0 0.0 0.0 0.0 30.0" Properties=species:S:1:pos:R:3 pbc="T T T"
C        0.63598928      15.97238751      14.42611012
C        1.90860146      15.36469229      13.85025006
H        0.57265122      15.84858962      15.51678384
H        1.84562747      15.48848337      12.75958660
H        0.69895332      17.05485528      14.24392774
H        1.97194012      14.28222493      14.03244139
6
Lattice="2.5445879 0.0 0.0 -0.0 30.0 0.0 0.0 0.0 30.0" Properties=species:S:1:pos:R:3 pbc="T T T"
C        0.63606964      15.97237875      14.42610506
C        1.90852073      15.36470115      13.85025503
H        0.60440061      15.84858981      15.51677692
H        1.87703374      15.48848169      12.75959330
H        0.66755166      17.05484264      14.24391887
H        1.94019006      14.28223746      14.03245069
6
Lattice="2.5445879 0.0 0.0 -0.0 30.0 0.0 0.0 0.0 30.0" Properties=species:S:1:pos:R:3 pbc="T T T"
C        0.63615000      15.97237000      14.42610000
C        1.90844000      15.36471000      13.85026000
H        0.63615000      15.84859000      15.51677000
H        1.90844000      15.48848000      12.75960000
H        0.63615000      17.05483000      14.24391000
H        1.90844000      14.28225000      14.03246000
6
Lattice="2.5445879 0.0 0.0 -0.0 30.0 0.0 0.0 0.0 30.0" Properties=species:S:1:pos:R:3 pbc="T T T"
C        0.63623036      15.97236125      14.42609494
C        1.90835927      15.36471885      13.85026497
H        0.66789939      15.84859019      15.51676308
H        1.93984626      15.48847831      12.75960670
H        0.60474834      17.05481736      14.24390113
H        1.87668994      14.28226254      14.03246931
6
Lattice="2.5445879 0.0 0.0 -0.0 30.0 0.0 0.0 0.0 30.0" Properties=species:S:1:pos:R:3 pbc="T T T"
C        0.63631072      15.97235249      14.42608988
C        1.90827854      15.36472771      13.85026994
H        0.69964878      15.84859038      15.51675616
H        1.97125253      15.48847663      12.75961340
H        0.57334668      17.05480472      14.24389226
H        1.84493988      14.28227507      14.03247861
6
Lattice="2.5445879 0.0 0.0 -0.0 30.0 0.0 0.0 0.0 30.0" Properties=species:S:1:pos:R:3 pbc="T T T"
C        0.63639108      15.97234374      14.42608483
C        1.90819781      15.36473656      13.85027491
H        0.73139816      15.84859056      15.51674924
H        2.00265879      15.48847494      12.75962010
H        0.54194502      17.05479208      14.24388340
H        1.81318982      14.28228761      14.03248792
6
Lattice="2.5445879 0.0 0.0 -0.0 30.0 0.0 0.0 0.0 30.0" Properties=species:S:1:pos:R:3 pbc="T T T"
C        0.63647144      15.97233498      14.42607977
C        1.90811708      15.36474542      13.85027988
H        0.76314755      15.84859075      15.51674232
H        2.03406506      15.48847326      12.75962680
H        0.51054335      17.05477944      14.24387453
H        1.78143976      14.28230015      14.03249722
6
Lattice="2.5445879 0.0 0.0 -0.0 30.0 0.0 0.0 0.0 30.0" Properties=species:S:1:pos:R:3 pbc="T T T"
C        0.63655180      15.97232623      14.42607471
C        1.90803635      15.36475427      13.85028485
H        0.79489694      15.84859094      15.51673539
H        2.06547132      15.48847157      12.75963349
H        0.47914169      17.05476680      14.24386566
H        1.74968970      14.28231268      14.03250653
6
Lattice="2.5445879 0.0 0.0 -0.0 30.0 0.0 0.0 0.0 30.0" Properties=species:S:1:pos:R:3 pbc="T T T"
C        0.63663216      15.97231747      14.42606965
C        1.90795562      15.36476313      13.85028982
H        0.82664633      15.84859113      15.51672847
H        2.09687759      15.48846989      12.75964019
H        0.44774003      17.05475416      14.24385679
H        1.71793964      14.28232522      14.03251583
6
Lattice="2.5445879 0.0 0.0 -0.0 30.0 0.0 0.0 0.0 30.0" Properties=species:S:1:pos:R:3 pbc="T T T"
C        0.63671252      15.97230872      14.42606460
C        1.90787489      15.36477198      13.85029478
H        0.85839572      15.84859131      15.51672155
H        2.12828385      15.48846820      12.75964689
H        0.41633837      17.05474151      14.24384793
H        1.68618958      14.28233775      14.03252514
6
Lattice="2.5445879 0.0 0.0 -0.0 30.0 0.0 0.0 0.0 30.0" Properties=species:S:1:pos:R:3 pbc="T T T"
C        0.63663216      15.97231747      14.42606965
C        1.90795562      15.36476313      13.85028982
H        0.82664633      15.84859113      15.51672847
H        2.09687759      15.48846989      12.75964019
H        0.44774003      17.05475416      14.24385679
H        1.71793964      14.28232522      14.03251583
6
Lattice="2.5445879 0.0 0.0 -0.0 30.0 0.0 0.0 0.0 30.0" Properties=species:S:1:pos:R:3 pbc="T T T"
C        0.63655180      15.97232623      14.42607471
C        1.90803635      15.36475427      13.85028485
H        0.79489694      15.84859094      15.51673539
H        2.06547132      15.48847157      12.75963349
H        0.47914169      17.05476680      14.24386566
H        1.74968970      14.28231268      14.03250653
6
Lattice="2.5445879 0.0 0.0 -0.0 30.0 0.0 0.0 0.0 30.0" Properties=species:S:1:pos:R:3 pbc="T T T"
C        0.63647144      15.97233498      14.42607977
C        1.90811708      15.36474542      13.85027988
H        0.76314755      15.84859075      15.51674232
H        2.03406506      15.48847326      12.75962680
H        0.51054335      17.05477944      14.24387453
H        1.78143976      14.28230015      14.03249722
6
Lattice="2.5445879 0.0 0.0 -0.0 30.0 0.0 0.0 0.0 30.0" Properties=species:S:1:pos:R:3 pbc="T T T"
C        0.63639108      15.97234374      14.42608483
C        1.90819781      15.36473656      13.85027491
H        0.73139816      15.84859056      15.51674924
H        2.00265879      15.48847494      12.75962010
H        0.54194502      17.05479208      14.24388340
H        1.81318982      14.28228761      14.03248792
6
Lattice="2.5445879 0.0 0.0 -0.0 30.0 0.0 0.0 0.0 30.0" Properties=species:S:1:pos:R:3 pbc="T T T"
C        0.63631072      15.97235249      14.42608988
C        1.90827854      15.36472771      13.85026994
H        0.69964878      15.84859038      15.51675616
H        1.97125253      15.48847663      12.75961340
H        0.57334668      17.05480472      14.24389226
H        1.84493988      14.28227507      14.03247861
6
Lattice="2.5445879 0.0 0.0 -0.0 30.0 0.0 0.0 0.0 30.0" Properties=species:S:1:pos:R:3 pbc="T T T"
C        0.63623036      15.97236125      14.42609494
C        1.90835927      15.36471885      13.85026497
H        0.66789939      15.84859019      15.51676308
H        1.93984626      15.48847831      12.75960670
H        0.60474834      17.05481736      14.24390113
H        1.87668994      14.28226254      14.03246931
6
Lattice="2.5445879 0.0 0.0 -0.0 30.0 0.0 0.0 0.0 30.0" Properties=species:S:1:pos:R:3 pbc="T T T"
C        0.63615000      15.97237000      14.42610000
C        1.90844000      15.36471000      13.85026000
H        0.63615000      15.84859000      15.51677000
H        1.90844000      15.48848000      12.75960000
H        0.63615000      17.05483000      14.24391000
H        1.90844000      14.28225000      14.03246000
6
Lattice="2.5445879 0.0 0.0 -0.0 30.0 0.0 0.0 0.0 30.0" Properties=species:S:1:pos:R:3 pbc="T T T"
C        0.63606964      15.97237875      14.42610506
C        1.90852073      15.36470115      13.85025503
H        0.60440061      15.84858981      15.51677692
H        1.87703374      15.48848169      12.75959330
H        0.66755166      17.05484264      14.24391887
H        1.94019006      14.28223746      14.03245069
6
Lattice="2.5445879 0.0 0.0 -0.0 30.0 0.0 0.0 0.0 30.0" Properties=species:S:1:pos:R:3 pbc="T T T"
C        0.63598928      15.97238751      14.42611012
C        1.90860146      15.36469229      13.85025006
H        0.57265122      15.84858962      15.51678384
H        1.84562747      15.48848337      12.75958660
H        0.69895332      17.05485528      14.24392774
H        1.97194012      14.28222493      14.03244139
6
Lattice="2.5445879 0.0 0.0 -0.0 30.0 0.0 0.0 0.0 30.0" Properties=species:S:1:pos:R:3 pbc="T T T"
C        0.63590892      15.97239626      14.42611517
C        1.90868219      15.36468344      13.85024509
H        0.54090184      15.84858944      15.51679076
H        1.81422121      15.48848506      12.75957990
H        0.73035498      17.05486792      14.24393660
H        2.00369018      14.28221239      14.03243208
6
Lattice="2.5445879 0.0 0.0 -0.0 30.0 0.0 0.0 0.0 30.0" Properties=species:S:1:pos:R:3 pbc="T T T"
C        0.63582856      15.97240502      14.42612023
C        1.90876292      15.36467458      13.85024012
H        0.50915245      15.84858925      15.51679768
H        1.78281494      15.48848674      12.75957320
H        0.76175665      17.05488056      14.24394547
H        2.03544024      14.28219985      14.03242278
6
Lattice="2.5445879 0.0 0.0 -0.0 30.0 0.0 0.0 0.0 30.0" Properties=species:S:1:pos:R:3 pbc="T T T"
C        0.63574820      15.97241377      14.42612529
C        1.90884365      15.36466573      13.85023515
H        0.47740306      15.84858906      15.51680461
H        1.75140868      15.48848843      12.75956651
H        0.79315831      17.05489320      14.24395434
H        2.06719030      14.28218732      14.03241347
6
Lattice="2.5445879 0.0 0.0 -0.0 30.0 0.0 0.0 0.0 30.0" Properties=species:S:1:pos:R:3 pbc="T T T"
C        0.63566784      15.97242253      14.42613035
C        1.90892438      15.36465687      13.85023018
H        0.44565367      15.84858887      15.51681153
H        1.72000241      15.48849011      12.75955981
H        0.82455997      17.05490584      14.24396321
H        2.09894036      14.28217478      14.03240417
