6
Lattice="2.5445879 0.0 0.0 -0.0 30.0 0.0 0.0 0.0 30.0" Properties=species:S:1:pos:R:3 pbc="T T T"
C        0.63574366      15.86428502      14.53653666
C        1.90803578      15.45980049      13.74592709
H        0.63577112      15.37149183      15.58500624
H        1.90807366      15.95249482      12.69743595
H        0.63578836      17.00857912      14.72073405
H        1.90802850      14.31560952      13.56217351
6
Lattice="2.5445879 0.0 0.0 -0.0 30.0 0.0 0.0 0.0 30.0" Properties=species:S:1:pos:R:3 pbc="T T T"
C        0.63580171      15.87972573      14.52075999
C        1.90809353      15.44621613      13.76083179
H        0.63582524      15.43964871      15.57525820
H        1.90812599      15.88620699      12.70631653
H        0.63584002      17.01518639      14.65261633
H        1.90808729      14.31084388      13.62935729
6
Lattice="2.5445879 0.0 0.0 -0.0 30.0 0.0 0.0 0.0 30.0" Properties=species:S:1:pos:R:3 pbc="T T T"
C        0.63585975      15.89516644      14.50498333
C        1.90815127      15.43263178      13.77573649
H        0.63587937      15.50780559      15.56551017
H        1.90817833      15.81991915      12.71519711
H        0.63589169      17.02179365      14.58449861
H        1.90814607      14.30607823      13.69654108
6
Lattice="2.5445879 0.0 0.0 -0.0 30.0 0.0 0.0 0.0 30.0" Properties=species:S:1:pos:R:3 pbc="T T T"
C        0.63591780      15.91060715      14.48920666
C        1.90820902      15.41904742      13.79064119
H        0.63593350      15.57596247      15.55576214
H        1.90823066      15.75363132      12.72407769
H        0.63594335      17.02840092      14.51638088
H        1.90820486      14.30131259      13.76372486
6
Lattice="2.5445879 0.0 0.0 -0.0 30.0 0.0 0.0 0.0 30.0" Properties=species:S:1:pos:R:3 pbc="T T T"
C        0.63597585      15.92604787      14.47343000
C        1.90826676      15.40546307      13.80554590
H        0.63598762      15.64411936      15.54601410
H        1.90828300      15.68734349      12.73295826
H        0.63599501      17.03500819      14.44826316
H        1.90826364      14.29654694      13.83090865
6
Lattice="2.5445879 0.0 0.0 -0.0 30.0 0.0 0.0 0.0 30.0" Properties=species:S:1:pos:R:3 pbc="T T T"
C        0.63603390      15.94148858      14.45765333
C        1.90832451      15.39187871      13.82045060
H        0.63604175      15.71227624      15.53626607
H        1.90833533      15.62105566      12.74183884
H        0.63604667      17.04161546      14.38014544
H        1.90832243      14.29178129      13.89809243
6
Lattice="2.5445879 0.0 0.0 -0.0 30.0 0.0 0.0 0.0 30.0" Properties=species:S:1:pos:R:3 pbc="T T T"
C        0.63609195      15.95692929      14.44187667
C        1.90838225      15.37829436      13.83535530
H        0.63609587      15.78043312      15.52651803
H        1.90838767      15.55476783      12.75071942
H        0.63609834      17.04822273      14.31202772
H        1.90838121      14.28701565      13.96527622
6
Lattice="2.5445879 0.0 0.0 -0.0 30.0 0.0 0.0 0.0 30.0" Properties=species:S:1:pos:R:3 pbc="T T T"
C        0.63615000      15.97237000      14.42610000
C        1.90844000      15.36471000      13.85026000
H        0.63615000      15.84859000      15.51677000
H        1.90844000      15.48848000      12.75960000
H        0.63615000      17.05483000      14.24391000
H        1.90844000      14.28225000      14.03246000
6
Lattice="2.5445879 0.0 0.0 -0.0 30.0 0.0 0.0 0.0 30.0" Properties=species:S:1:pos:R:3 pbc="T T T"
C        0.63620805      15.98781071      14.41032333
C        1.90849775      15.35112564      13.86516470
H        0.63620413      15.91674688      15.50702197
H        1.90849233      15.42219217      12.76848058
H        0.63620166      17.06143727      14.17579228
H        1.90849879      14.27748435      14.09964378
6
Lattice="2.5445879 0.0 0.0 -0.0 30.0 0.0 0.0 0.0 30.0" Properties=species:S:1:pos:R:3 pbc="T T T"
C        0.63626610      16.00325142      14.39454667
C        1.90855549      15.33754129      13.88006940
H        0.63625825      15.98490376      15.49727393
H        1.90854467      15.35590434      12.77736116
H        0.63625333      17.06804454      14.10767456
H        1.90855757      14.27271871      14.16682757
6
Lattice="2.5445879 0.0 0.0 -0.0 30.0 0.0 0.0 0.0 30.0" Properties=species:S:1:pos:R:3 pbc="T T T"
C        0.63632415      16.01869213      14.37877000
C        1.90861324      15.32395693      13.89497410
H        0.63631238      16.05306064      15.48752590
H        1.90859700      15.28961651      12.78624174
H        0.63630499      17.07465181      14.03955684
H        1.90861636      14.26795306      14.23401135
6
Lattice="2.5445879 0.0 0.0 -0.0 30.0 0.0 0.0 0.0 30.0" Properties=species:S:1:pos:R:3 pbc="T T T"
C        0.63638220      16.03413285      14.36299334
C        1.90867098      15.31037258      13.90987881
H        0.63636650      16.12121753      15.47777786
H        1.90864934      15.22332868      12.79512231
H        0.63635665      17.08125908      13.97143912
H        1.90867514      14.26318741      14.30119514
6
Lattice="2.5445879 0.0 0.0 -0.0 30.0 0.0 0.0 0.0 30.0" Properties=species:S:1:pos:R:3 pbc="T T T"
C        0.63644025      16.04957356      14.34721667
C        1.90872873      15.29678822      13.92478351
H        0.63642063      16.18937441      15.46802983
H        1.90870167      15.15704085      12.80400289
H        0.63640831      17.08786635      13.90332139
H        1.90873393      14.25842177      14.36837892
6
Lattice="2.5445879 0.0 0.0 -0.0 30.0 0.0 0.0 0.0 30.0" Properties=species:S:1:pos:R:3 pbc="T T T"
C        0.63649829      16.06501427      14.33144001
C        1.90878647      15.28320387      13.93968821
H        0.63647476      16.25753129      15.45828180
H        1.90875401      15.09075301      12.81288347
H        0.63645998      17.09447361      13.83520367
H        1.90879271      14.25365612      14.43556271
6
Lattice="2.5445879 0.0 0.0 -0.0 30.0 0.0 0.0 0.0 30.0" Properties=species:S:1:pos:R:3 pbc="T T T"
C        0.63655634      16.08045498      14.31566334
C        1.90884422      15.26961951      13.95459291
H        0.63652888      16.32568817      15.44853376
H        1.90880634      15.02446518      12.82176405
H        0.63651164      17.10108088      13.76708595
H        1.90885150      14.24889048      14.50274649
6
Lattice="2.5445879 0.0 0.0 -0.0 30.0 0.0 0.0 0.0 30.0" Properties=species:S:1:pos:R:3 pbc="T T T"
C        0.63649829      16.06501427      14.33144001
C        1.90878647      15.28320387      13.93968821
H        0.63647476      16.25753129      15.45828180
H        1.90875401      15.09075301      12.81288347
H        0.63645998      17.09447361      13.83520367
H        1.90879271      14.25365612      14.43556271
6
Lattice="2.5445879 0.0 0.0 -0.0 30.0 0.0 0.0 0.0 30.0" Properties=species:S:1:pos:R:3 pbc="T T T"
C        0.63644025      16.04957356      14.34721667
C        1.90872873      15.29678822      13.92478351
H        0.63642063      16.18937441      15.46802983
H        1.90870167      15.15704085      12.80400289
H        0.63640831      17.08786635      13.90332139
H        1.90873393      14.25842177      14.36837892
6
Lattice="2.5445879 0.0 0.0 -0.0 30.0 0.0 0.0 0.0 30.0" Properties=species:S:1:pos:R:3 pbc="T T T"
C        0.63638220      16.03413285      14.36299334
C        1.90867098      15.31037258      13.90987881
H        0.63636650      16.12121753      15.47777786
H        1.90864934      15.22332868      12.79512231
H        0.63635665      17.08125908      13.97143912
H        1.90867514      14.26318741      14.30119514
6
Lattice="2.5445879 0.0 0.0 -0.0 30.0 0.0 0.0 0.0 30.0" Properties=species:S:1:pos:R:3 pbc="T T T"
C        0.63632415      16.01869213      14.37877000
C        1.90861324      15.32395693      13.89497410
H        0.63631238      16.05306064      15.48752590
H        1.90859700      15.28961651      12.78624174
H        0.63630499      17.07465181      14.03955684
H        1.90861636      14.26795306      14.23401135
6
Lattice="2.5445879 0.0 0.0 -0.0 30.0 0.0 0.0 0.0 30.0" Properties=species:S:1:pos:R:3 pbc="T T T"
C        0.63626610      16.00325142      14.39454667
C        1.90855549      15.33754129      13.88006940
H        0.63625825      15.98490376      15.49727393
H        1.90854467      15.35590434      12.77736116
H        0.63625333      17.06804454      14.10767456
H        1.90855757      14.27271871      14.16682757
6
Lattice="2.5445879 0.0 0.0 -0.0 30.0 0.0 0.0 0.0 30.0" Properties=species:S:1:pos:R:3 pbc="T T T"
C        0.63620805      15.98781071      14.41032333
C        1.90849775      15.35112564      13.86516470
H        0.63620413      15.91674688      15.50702197
H        1.90849233      15.42219217      12.76848058
H        0.63620166      17.06143727      14.17579228
H        1.90849879      14.27748435      14.09964378
6
Lattice="2.5445879 0.0 0.0 -0.0 30.0 0.0 0.0 0.0 30.0" Properties=species:S:1:pos:R:3 pbc="T T T"
C        0.63615000      15.97237000      14.42610000
C        1.90844000      15.36471000      13.85026000
H        0.63615000      15.84859000      15.51677000
H        1.90844000      15.48848000      12.75960000
H        0.63615000      17.05483000      14.24391000
H        1.90844000      14.28225000      14.03246000
6
Lattice="2.5445879 0.0 0.0 -0.0 30.0 0.0 0.0 0.0 30.0" Properties=species:S:1:pos:R:3 pbc="T T T"
C        0.63609195      15.95692929      14.44187667
C        1.90838225      15.37829436      13.83535530
H        0.63609587      15.78043312      15.52651803
H        1.90838767      15.55476783      12.75071942
H        0.63609834      17.04822273      14.31202772
H        1.90838121      14.28701565      13.96527622
6
Lattice="2.5445879 0.0 0.0 -0.0 30.0 0.0 0.0 0.0 30.0" Properties=species:S:1:pos:R:3 pbc="T T T"
C        0.63603390      15.94148858      14.45765333
C        1.90832451      15.39187871      13.82045060
H        0.63604175      15.71227624      15.53626607
H        1.90833533      15.62105566      12.74183884
H        0.63604667      17.04161546      14.38014544
H        1.90832243      14.29178129      13.89809243
6
Lattice="2.5445879 0.0 0.0 -0.0 30.0 0.0 0.0 0.0 30.0" Properties=species:S:1:pos:R:3 pbc="T T T"
C        0.63597585      15.92604787      14.47343000
C        1.90826676      15.40546307      13.80554590
H        0.63598762      15.64411936      15.54601410
H        1.90828300      15.68734349      12.73295826
H        0.63599501      17.03500819      14.44826316
H        1.90826364      14.29654694      13.83090865
6
Lattice="2.5445879 0.0 0.0 -0.0 30.0 0.0 0.0 0.0 30.0" Properties=species:S:1:pos:R:3 pbc="T T T"
C        0.63591780      15.91060715      14.48920666
C        1.90820902      15.41904742      13.79064119
H        0.63593350      15.57596247      15.55576214
H        1.90823066      15.75363132      12.72407769
H        0.63594335      17.02840092      14.51638088
H        1.90820486      14.30131259      13.76372486
6
Lattice="2.5445879 0.0 0.0 -0.0 30.0 0.0 0.0 0.0 30.0" Properties=species:S:1:pos:R:3 pbc="T T T"
C        0.63585975      15.89516644      14.50498333
C        1.90815127      15.43263178      13.77573649
H        0.63587937      15.50780559      15.56551017
H        1.90817833      15.81991915      12.71519711
H        0.63589169      17.02179365      14.58449861
H        1.90814607      14.30607823      13.69654108
6
Lattice="2.5445879 0.0 0.0 -0.0 30.0 0.0 0.0 0.0 30.0" Properties=species:S:1:pos:R:3 pbc="T T T"
C        0.63580171      15.87972573      14.52075999
C        1.90809353      15.44621613      13.76083179
H        0.63582524      15.43964871      15.57525820
H        1.90812599      15.88620699      12.70631653
H        0.63584002      17.01518639      14.65261633
H        1.90808729      14.31084388      13.62935729
