6
Lattice="2.5445879 0.0 0.0 -0.0 30.0 0.0 0.0 0.0 30.0" Properties=species:S:1:pos:R:3 pbc="T T T"
C       -3.94850057      15.10642773      12.10479387
C       -2.67616709      14.49786338      11.53145574
H       -3.94844662      14.98449948      13.20185967
H       -2.67592474      14.61759639      10.43385017
H       -3.94817808      16.19475263      11.92245881
H       -2.67605425      13.40998246      11.71660592
6
Lattice="2.5445879 0.0 0.0 -0.0 30.0 0.0 0.0 0.0 30.0" Properties=species:S:1:pos:R:3 pbc="T T T"
C       -3.29355049      15.23013377      12.43640903
C       -2.02122322      14.62169861      11.86271349
H       -3.29350424      15.10794098      13.53256115
H       -2.02101549      14.74200833      10.76610015
H       -3.29327407      16.31762082      12.25409470
H       -2.02112650      13.53459211      12.04744221
6
Lattice="2.5445879 0.0 0.0 -0.0 30.0 0.0 0.0 0.0 30.0" Properties=species:S:1:pos:R:3 pbc="T T T"
C       -2.63860041      15.35383981      12.76802419
C       -1.36627935      14.74553384      12.19397124
H       -2.63856187      15.23138248      13.86326262
H       -1.36610624      14.86642028      11.09835012
H       -2.63837006      16.44048902      12.58573058
H       -1.36619875      13.65920176      12.37827851
6
Lattice="2.5445879 0.0 0.0 -0.0 30.0 0.0 0.0 0.0 30.0" Properties=species:S:1:pos:R:3 pbc="T T T"
C       -1.98365033      15.47754585      13.09963936
C       -0.71133548      14.86936907      12.52522899
H       -1.98361950      15.35482399      14.19396410
H       -0.71119699      14.99083222      11.43060010
H       -1.98346605      16.56335722      12.91736646
H       -0.71127100      13.78381141      12.70911481
6
Lattice="2.5445879 0.0 0.0 -0.0 30.0 0.0 0.0 0.0 30.0" Properties=species:S:1:pos:R:3 pbc="T T T"
C       -1.32870024      15.60125189      13.43125452
C       -0.05639161      14.99320430      12.85648675
H       -1.32867712      15.47826549      14.52466557
H       -0.05628774      15.11524417      11.76285007
H       -1.32856203      16.68622541      13.24900235
H       -0.05634325      13.90842106      13.03995111
6
Lattice="2.5445879 0.0 0.0 -0.0 30.0 0.0 0.0 0.0 30.0" Properties=species:S:1:pos:R:3 pbc="T T T"
C       -0.67375016      15.72495792      13.76286968
C        0.59855226      15.11703954      13.18774450
H       -0.67373475      15.60170699      14.85536705
H        0.59862150      15.23965611      12.09510005
H       -0.67365802      16.80909361      13.58063823
H        0.59858450      14.03303070      13.37078740
6
Lattice="2.5445879 0.0 0.0 -0.0 30.0 0.0 0.0 0.0 30.0" Properties=species:S:1:pos:R:3 pbc="T T T"
C       -0.01880008      15.84866396      14.09448484
C        1.25349613      15.24087477      13.51900225
H       -0.01879237      15.72514850      15.18606852
H        1.25353075      15.36406806      12.42735002
H       -0.01875401      16.93196180      13.91227412
H        1.25351225      14.15764035      13.70162370
6
Lattice="2.5445879 0.0 0.0 -0.0 30.0 0.0 0.0 0.0 30.0" Properties=species:S:1:pos:R:3 pbc="T T T"
C        0.63615000      15.97237000      14.42610000
C        1.90844000      15.36471000      13.85026000
H        0.63615000      15.84859000      15.51677000
H        1.90844000      15.48848000      12.75960000
H        0.63615000      17.05483000      14.24391000
H        1.90844000      14.28225000      14.03246000
6
Lattice="2.5445879 0.0 0.0 -0.0 30.0 0.0 0.0 0.0 30.0" Properties=species:S:1:pos:R:3 pbc="T T T"
C        1.29110008      16.09607604      14.75771516
C        2.56338387      15.48854523      14.18151775
H        1.29109237      15.97203150      15.84747148
H        2.56334925      15.61289194      13.09184998
H        1.29105401      17.17769820      14.57554588
H        2.56336775      14.40685965      14.36329630
6
Lattice="2.5445879 0.0 0.0 -0.0 30.0 0.0 0.0 0.0 30.0" Properties=species:S:1:pos:R:3 pbc="T T T"
C        1.94605016      16.21978208      15.08933032
C        3.21832774      15.61238046      14.51277550
H        1.94603475      16.09547301      16.17817295
H        3.21825850      15.73730389      13.42409995
H        1.94595802      17.30056639      14.90718177
H        3.21829550      14.53146930      14.69413260
6
Lattice="2.5445879 0.0 0.0 -0.0 30.0 0.0 0.0 0.0 30.0" Properties=species:S:1:pos:R:3 pbc="T T T"
C        2.60100024      16.34348811      15.42094548
C        3.87327161      15.73621570      14.84403325
H        2.60097712      16.21891451      16.50887443
H        3.87316774      15.86171583      13.75634993
H        2.60086203      17.42343459      15.23881765
H        3.87322325      14.65607894      15.02496889
6
Lattice="2.5445879 0.0 0.0 -0.0 30.0 0.0 0.0 0.0 30.0" Properties=species:S:1:pos:R:3 pbc="T T T"
C        3.25595033      16.46719415      15.75256064
C        4.52821548      15.86005093      15.17529101
H        3.25591950      16.34235601      16.83957590
H        4.52807699      15.98612778      14.08859990
H        3.25576605      17.54630278      15.57045354
H        4.52815100      14.78068859      15.35580519
6
Lattice="2.5445879 0.0 0.0 -0.0 30.0 0.0 0.0 0.0 30.0" Properties=species:S:1:pos:R:3 pbc="T T T"
C        3.91090041      16.59090019      16.08417581
C        5.18315935      15.98388616      15.50654876
H        3.91086187      16.46579752      17.17027738
H        5.18298624      16.11053972      14.42084988
H        3.91067006      17.66917098      15.90208942
H        5.18307875      14.90529824      15.68664149
6
Lattice="2.5445879 0.0 0.0 -0.0 30.0 0.0 0.0 0.0 30.0" Properties=species:S:1:pos:R:3 pbc="T T T"
C        4.56585049      16.71460623      16.41579097
C        5.83810322      16.10772139      15.83780651
H        4.56580424      16.58923902      17.50097885
H        5.83789549      16.23495167      14.75309985
H        4.56557407      17.79203918      16.23372530
H        5.83800650      15.02990789      16.01747779
6
Lattice="2.5445879 0.0 0.0 -0.0 30.0 0.0 0.0 0.0 30.0" Properties=species:S:1:pos:R:3 pbc="T T T"
C        5.22080057      16.83831227      16.74740613
C        6.49304709      16.23155662      16.16906426
H        5.22074662      16.71268052      17.83168033
H        6.49280474      16.35936361      15.08534983
H        5.22047808      17.91490737      16.56536119
H        6.49293425      15.15451754      16.34831408
6
Lattice="2.5445879 0.0 0.0 -0.0 30.0 0.0 0.0 0.0 30.0" Properties=species:S:1:pos:R:3 pbc="T T T"
C        4.56585049      16.71460623      16.41579097
C        5.83810322      16.10772139      15.83780651
H        4.56580424      16.58923902      17.50097885
H        5.83789549      16.23495167      14.75309985
H        4.56557407      17.79203918      16.23372530
H        5.83800650      15.02990789      16.01747779
6
Lattice="2.5445879 0.0 0.0 -0.0 30.0 0.0 0.0 0.0 30.0" Properties=species:S:1:pos:R:3 pbc="T T T"
C        3.91090041      16.59090019      16.08417581
C        5.18315935      15.98388616      15.50654876
H        3.91086187      16.46579752      17.17027738
H        5.18298624      16.11053972      14.42084988
H        3.91067006      17.66917098      15.90208942
H        5.18307875      14.90529824      15.68664149
6
Lattice="2.5445879 0.0 0.0 -0.0 30.0 0.0 0.0 0.0 30.0" Properties=species:S:1:pos:R:3 pbc="T T T"
C        3.25595033      16.46719415      15.75256064
C        4.52821548      15.86005093      15.17529101
H        3.25591950      16.34235601      16.83957590
H        4.52807699      15.98612778      14.08859990
H        3.25576605      17.54630278      15.57045354
H        4.52815100      14.78068859      15.35580519
6
Lattice="2.5445879 0.0 0.0 -0.0 30.0 0.0 0.0 0.0 30.0" Properties=species:S:1:pos:R:3 pbc="T T T"
C        2.60100024      16.34348811      15.42094548
C        3.87327161      15.73621570      14.84403325
H        2.60097712      16.21891451      16.50887443
H        3.87316774      15.86171583      13.75634993
H        2.60086203      17.42343459      15.23881765
H        3.87322325      14.65607894      15.02496889
6
Lattice="2.5445879 0.0 0.0 -0.0 30.0 0.0 0.0 0.0 30.0" Properties=species:S:1:pos:R:3 pbc="T T T"
C        1.94605016      16.21978208      15.08933032
C        3.21832774      15.61238046      14.51277550
H        1.94603475      16.09547301      16.17817295
H        3.21825850      15.73730389      13.42409995
H        1.94595802      17.30056639      14.90718177
H        3.21829550      14.53146930      14.69413260
6
Lattice="2.5445879 0.0 0.0 -0.0 30.0 0.0 0.0 0.0 30.0" Properties=species:S:1:pos:R:3 pbc="T T T"
C        1.29110008      16.09607604      14.75771516
C        2.56338387      15.48854523      14.18151775
H        1.29109237      15.97203150      15.84747148
H        2.56334925      15.61289194      13.09184998
H        1.29105401      17.17769820      14.57554588
H        2.56336775      14.40685965      14.36329630
6
Lattice="2.5445879 0.0 0.0 -0.0 30.0 0.0 0.0 0.0 30.0" Properties=species:S:1:pos:R:3 pbc="T T T"
C        0.63615000      15.97237000      14.42610000
C        1.90844000      15.36471000      13.85026000
H        0.63615000      15.84859000      15.51677000
H        1.90844000      15.48848000      12.75960000
H        0.63615000      17.05483000      14.24391000
H        1.90844000      14.28225000      14.03246000
6
Lattice="2.5445879 0.0 0.0 -0.0 30.0 0.0 0.0 0.0 30.0" Properties=species:S:1:pos:R:3 pbc="T T T"
C       -0.01880008      15.84866396      14.09448484
C        1.25349613      15.24087477      13.51900225
H       -0.01879237      15.72514850      15.18606852
H        1.25353075      15.36406806      12.42735002
H       -0.01875401      16.93196180      13.91227412
H        1.25351225      14.15764035      13.70162370
6
Lattice="2.5445879 0.0 0.0 -0.0 30.0 0.0 0.0 0.0 30.0" Properties=species:S:1:pos:R:3 pbc="T T T"
C       -0.67375016      15.72495792      13.76286968
C        0.59855226      15.11703954      13.18774450
H       -0.67373475      15.60170699      14.85536705
H        0.59862150      15.23965611      12.09510005
H       -0.67365802      16.80909361      13.58063823
H        0.59858450      14.03303070      13.37078740
6
Lattice="2.5445879 0.0 0.0 -0.0 30.0 0.0 0.0 0.0 30.0" Properties=species:S:1:pos:R:3 pbc="T T T"
C       -1.32870024      15.60125189      13.43125452
C       -0.05639161      14.99320430      12.85648675
H       -1.32867712      15.47826549      14.52466557
H       -0.05628774      15.11524417      11.76285007
H       -1.32856203      16.68622541      13.24900235
H       -0.05634325      13.90842106      13.03995111
6
Lattice="2.5445879 0.0 0.0 -0.0 30.0 0.0 0.0 0.0 30.0" Properties=species:S:1:pos:R:3 pbc="T T T"
C       -1.98365033      15.47754585      13.09963936
C       -0.71133548      14.86936907      12.52522899
H       -1.98361950      15.35482399      14.19396410
H       -0.71119699      14.99083222      11.43060010
H       -1.98346605      16.56335722      12.91736646
H       -0.71127100      13.78381141      12.70911481
6
Lattice="2.5445879 0.0 0.0 -0.0 30.0 0.0 0.0 0.0 30.0" Properties=species:S:1:pos:R:3 pbc="T T T"
C       -2.63860041      15.35383981      12.76802419
C       -1.36627935      14.74553384      12.19397124
H       -2.63856187      15.23138248      13.86326262
H       -1.36610624      14.86642028      11.09835012
H       -2.63837006      16.44048902      12.58573058
H       -1.36619875      13.65920176      12.37827851
6
Lattice="2.5445879 0.0 0.0 -0.0 30.0 0.0 0.0 0.0 30.0" Properties=species:S:1:pos:R:3 pbc="T T T"
C       -3.29355049      15.23013377      12.43640903
C       -2.02122322      14.62169861      11.86271349
H       -3.29350424      15.10794098      13.53256115
H       -2.02101549      14.74200833      10.76610015
H       -3.29327407      16.31762082      12.25409470
H       -2.02112650      13.53459211      12.04744221
