6
Lattice="2.5445879 0.0 0.0 -0.0 30.0 0.0 0.0 0.0 30.0" Properties=species:S:1:pos:R:3 pbc="T T T"
C        0.53113664      14.01184620      15.34510570
C        1.80342118      13.34343629      14.83355961
H        0.53119529      14.00717072      16.44862157
H        1.80347227      13.34878734      13.73023562
H        0.53118734      15.07355959      15.04352755
H        1.80349854      12.28132982      15.13372939
6
Lattice="2.5445879 0.0 0.0 -0.0 30.0 0.0 0.0 0.0 30.0" Properties=species:S:1:pos:R:3 pbc="T T T"
C        0.54613855      14.29192103      15.21381917
C        1.81842387      13.63218967      14.69308824
H        0.54618882      14.27023062      16.31549991
H        1.81846766      13.65445772      13.59157339
H        0.54618201      15.35659822      14.92929647
H        1.81849018      12.56717556      14.97640519
6
Lattice="2.5445879 0.0 0.0 -0.0 30.0 0.0 0.0 0.0 30.0" Properties=species:S:1:pos:R:3 pbc="T T T"
C        0.56114046      14.57199586      15.08253265
C        1.83342656      13.92094306      14.55261687
H        0.56118235      14.53329051      16.18237826
H        1.83346305      13.96012810      13.45291116
H        0.56117667      15.63963685      14.81506539
H        1.83348182      12.85302130      14.81908099
6
Lattice="2.5445879 0.0 0.0 -0.0 30.0 0.0 0.0 0.0 30.0" Properties=species:S:1:pos:R:3 pbc="T T T"
C        0.57614237      14.85207069      14.95124612
C        1.84842925      14.20969645      14.41214549
H        0.57617588      14.79635041      16.04925661
H        1.84845844      14.26579848      13.31424893
H        0.57617134      15.92267548      14.70083431
H        1.84847345      13.13886704      14.66175680
6
Lattice="2.5445879 0.0 0.0 -0.0 30.0 0.0 0.0 0.0 30.0" Properties=species:S:1:pos:R:3 pbc="T T T"
C        0.59114427      15.13214551      14.81995959
C        1.86343193      14.49844984      14.27167412
H        0.59116941      15.05941031      15.91613496
H        1.86345383      14.57146886      13.17558669
H        0.59116600      16.20571411      14.58660323
H        1.86346509      13.42471278      14.50443260
6
Lattice="2.5445879 0.0 0.0 -0.0 30.0 0.0 0.0 0.0 30.0" Properties=species:S:1:pos:R:3 pbc="T T T"
C        0.60614618      15.41222034      14.68867306
C        1.87843462      14.78720322      14.13120275
H        0.60616294      15.32247021      15.78301330
H        1.87844922      14.87713924      13.03692446
H        0.60616067      16.48875274      14.47237216
H        1.87845673      13.71055852      14.34710840
6
Lattice="2.5445879 0.0 0.0 -0.0 30.0 0.0 0.0 0.0 30.0" Properties=species:S:1:pos:R:3 pbc="T T T"
C        0.62114809      15.69229517      14.55738653
C        1.89343731      15.07595661      13.99073137
H        0.62115647      15.58553010      15.64989165
H        1.89344461      15.18280962      12.89826223
H        0.62115533      16.77179137      14.35814108
H        1.89344836      13.99640426      14.18978420
6
Lattice="2.5445879 0.0 0.0 -0.0 30.0 0.0 0.0 0.0 30.0" Properties=species:S:1:pos:R:3 pbc="T T T"
C        0.63615000      15.97237000      14.42610000
C        1.90844000      15.36471000      13.85026000
H        0.63615000      15.84859000      15.51677000
H        1.90844000      15.48848000      12.75960000
H        0.63615000      17.05483000      14.24391000
H        1.90844000      14.28225000      14.03246000
6
Lattice="2.5445879 0.0 0.0 -0.0 30.0 0.0 0.0 0.0 30.0" Properties=species:S:1:pos:R:3 pbc="T T T"
C        0.65115191      16.25244483      14.29481347
C        1.92344269      15.65346339      13.70978863
H        0.65114353      16.11164990      15.38364835
H        1.92343539      15.79415038      12.62093777
H        0.65114467      17.33786863      14.12967892
H        1.92343164      14.56809574      13.87513580
6
Lattice="2.5445879 0.0 0.0 -0.0 30.0 0.0 0.0 0.0 30.0" Properties=species:S:1:pos:R:3 pbc="T T T"
C        0.66615382      16.53251966      14.16352694
C        1.93844538      15.94221678      13.56931725
H        0.66613706      16.37470979      15.25052670
H        1.93843078      16.09982076      12.48227554
H        0.66613933      17.62090726      14.01544784
H        1.93842327      14.85394148      13.71781160
6
Lattice="2.5445879 0.0 0.0 -0.0 30.0 0.0 0.0 0.0 30.0" Properties=species:S:1:pos:R:3 pbc="T T T"
C        0.68115573      16.81259449      14.03224041
C        1.95344807      16.23097016      13.42884588
H        0.68113059      16.63776969      15.11740504
H        1.95342617      16.40549114      12.34361331
H        0.68113400      17.90394589      13.90121677
H        1.95341491      15.13978722      13.56048740
6
Lattice="2.5445879 0.0 0.0 -0.0 30.0 0.0 0.0 0.0 30.0" Properties=species:S:1:pos:R:3 pbc="T T T"
C        0.69615763      17.09266931      13.90095388
C        1.96845075      16.51972355      13.28837451
H        0.69612412      16.90082959      14.98428339
H        1.96842156      16.71116152      12.20495107
H        0.69612866      18.18698452      13.78698569
H        1.96840655      15.42563296      13.40316320
6
Lattice="2.5445879 0.0 0.0 -0.0 30.0 0.0 0.0 0.0 30.0" Properties=species:S:1:pos:R:3 pbc="T T T"
C        0.71115954      17.37274414      13.76966735
C        1.98345344      16.80847694      13.14790313
H        0.71111765      17.16388949      14.85116174
H        1.98341695      17.01683190      12.06628884
H        0.71112333      18.47002315      13.67275461
H        1.98339818      15.71147870      13.24583901
6
Lattice="2.5445879 0.0 0.0 -0.0 30.0 0.0 0.0 0.0 30.0" Properties=species:S:1:pos:R:3 pbc="T T T"
C        0.72616145      17.65281897      13.63838083
C        1.99845613      17.09723033      13.00743176
H        0.72611118      17.42694938      14.71804009
H        1.99841234      17.32250228      11.92762661
H        0.72611799      18.75306178      13.55852353
H        1.99838982      15.99732444      13.08851481
6
Lattice="2.5445879 0.0 0.0 -0.0 30.0 0.0 0.0 0.0 30.0" Properties=species:S:1:pos:R:3 pbc="T T T"
C        0.74116336      17.93289380      13.50709430
C        2.01345882      17.38598371      12.86696039
H        0.74110471      17.69000928      14.58491843
H        2.01340773      17.62817266      11.78896438
H        0.74111266      19.03610041      13.44429245
H        2.01338146      16.28317018      12.93119061
6
Lattice="2.5445879 0.0 0.0 -0.0 30.0 0.0 0.0 0.0 30.0" Properties=species:S:1:pos:R:3 pbc="T T T"
C        0.72616145      17.65281897      13.63838083
C        1.99845613      17.09723033      13.00743176
H        0.72611118      17.42694938      14.71804009
H        1.99841234      17.32250228      11.92762661
H        0.72611799      18.75306178      13.55852353
H        1.99838982      15.99732444      13.08851481
6
Lattice="2.5445879 0.0 0.0 -0.0 30.0 0.0 0.0 0.0 30.0" Properties=species:S:1:pos:R:3 pbc="T T T"
C        0.71115954      17.37274414      13.76966735
C        1.98345344      16.80847694      13.14790313
H        0.71111765      17.16388949      14.85116174
H        1.98341695      17.01683190      12.06628884
H        0.71112333      18.47002315      13.67275461
H        1.98339818      15.71147870      13.24583901
6
Lattice="2.5445879 0.0 0.0 -0.0 30.0 0.0 0.0 0.0 30.0" Properties=species:S:1:pos:R:3 pbc="T T T"
C        0.69615763      17.09266931      13.90095388
C        1.96845075      16.51972355      13.28837451
H        0.69612412      16.90082959      14.98428339
H        1.96842156      16.71116152      12.20495107
H        0.69612866      18.18698452      13.78698569
H        1.96840655      15.42563296      13.40316320
6
Lattice="2.5445879 0.0 0.0 -0.0 30.0 0.0 0.0 0.0 30.0" Properties=species:S:1:pos:R:3 pbc="T T T"
C        0.68115573      16.81259449      14.03224041
C        1.95344807      16.23097016      13.42884588
H        0.68113059      16.63776969      15.11740504
H        1.95342617      16.40549114      12.34361331
H        0.68113400      17.90394589      13.90121677
H        1.95341491      15.13978722      13.56048740
6
Lattice="2.5445879 0.0 0.0 -0.0 30.0 0.0 0.0 0.0 30.0" Properties=species:S:1:pos:R:3 pbc="T T T"
C        0.66615382      16.53251966      14.16352694
C        1.93844538      15.94221678      13.56931725
H        0.66613706      16.37470979      15.25052670
H        1.93843078      16.09982076      12.48227554
H        0.66613933      17.62090726      14.01544784
H        1.93842327      14.85394148      13.71781160
6
Lattice="2.5445879 0.0 0.0 -0.0 30.0 0.0 0.0 0.0 30.0" Properties=species:S:1:pos:R:3 pbc="T T T"
C        0.65115191      16.25244483      14.29481347
C        1.92344269      15.65346339      13.70978863
H        0.65114353      16.11164990      15.38364835
H        1.92343539      15.79415038      12.62093777
H        0.65114467      17.33786863      14.12967892
H        1.92343164      14.56809574      13.87513580
6
Lattice="2.5445879 0.0 0.0 -0.0 30.0 0.0 0.0 0.0 30.0" Properties=species:S:1:pos:R:3 pbc="T T T"
C        0.63615000      15.97237000      14.42610000
C        1.90844000      15.36471000      13.85026000
H        0.63615000      15.84859000      15.51677000
H        1.90844000      15.48848000      12.75960000
H        0.63615000      17.05483000      14.24391000
H        1.90844000      14.28225000      14.03246000
6
Lattice="2.5445879 0.0 0.0 -0.0 30.0 0.0 0.0 0.0 30.0" Properties=species:S:1:pos:R:3 pbc="T T T"
C        0.62114809      15.69229517      14.55738653
C        1.89343731      15.07595661      13.99073137
H        0.62115647      15.58553010      15.64989165
H        1.89344461      15.18280962      12.89826223
H        0.62115533      16.77179137      14.35814108
H        1.89344836      13.99640426      14.18978420
6
Lattice="2.5445879 0.0 0.0 -0.0 30.0 0.0 0.0 0.0 30.0" Properties=species:S:1:pos:R:3 pbc="T T T"
C        0.60614618      15.41222034      14.68867306
C        1.87843462      14.78720322      14.13120275
H        0.60616294      15.32247021      15.78301330
H        1.87844922      14.87713924      13.03692446
H        0.60616067      16.48875274      14.47237216
H        1.87845673      13.71055852      14.34710840
6
Lattice="2.5445879 0.0 0.0 -0.0 30.0 0.0 0.0 0.0 30.0" Properties=species:S:1:pos:R:3 pbc="T T T"
C        0.59114427      15.13214551      14.81995959
C        1.86343193      14.49844984      14.27167412
H        0.59116941      15.05941031      15.91613496
H        1.86345383      14.57146886      13.17558669
H        0.59116600      16.20571411      14.58660323
H        1.86346509      13.42471278      14.50443260
6
Lattice="2.5445879 0.0 0.0 -0.0 30.0 0.0 0.0 0.0 30.0" Properties=species:S:1:pos:R:3 pbc="T T T"
C        0.57614237      14.85207069      14.95124612
C        1.84842925      14.20969645      14.41214549
H        0.57617588      14.79635041      16.04925661
H        1.84845844      14.26579848      13.31424893
H        0.57617134      15.92267548      14.70083431
H        1.84847345      13.13886704      14.66175680
6
Lattice="2.5445879 0.0 0.0 -0.0 30.0 0.0 0.0 0.0 30.0" Properties=species:S:1:pos:R:3 pbc="T T T"
C        0.56114046      14.57199586      15.08253265
C        1.83342656      13.92094306      14.55261687
H        0.56118235      14.53329051      16.18237826
H        1.83346305      13.96012810      13.45291116
H        0.56117667      15.63963685      14.81506539
H        1.83348182      12.85302130      14.81908099
6
Lattice="2.5445879 0.0 0.0 -0.0 30.0 0.0 0.0 0.0 30.0" Properties=species:S:1:pos:R:3 pbc="T T T"
C        0.54613855      14.29192103      15.21381917
C        1.81842387      13.63218967      14.69308824
H        0.54618882      14.27023062      16.31549991
H        1.81846766      13.65445772      13.59157339
H        0.54618201      15.35659822      14.92929647
H        1.81849018      12.56717556      14.97640519
