6
Lattice="2.5445879 0.0 0.0 -0.0 30.0 0.0 0.0 0.0 30.0" Properties=species:S:1:pos:R:3 pbc="T T T"
C        0.63614940      15.96516686      14.41520289
C        1.90843851      15.35358054      13.84410430
H        0.63615632      15.82716479      15.67049650
H        1.90845438      15.47252414      12.86062069
H        0.63615536      17.16103572      14.22138266
H        1.90845425      14.43185794      14.00342381
6
Lattice="2.5445879 0.0 0.0 -0.0 30.0 0.0 0.0 0.0 30.0" Properties=species:S:1:pos:R:3 pbc="T T T"
C        0.63614948      15.96619588      14.41675962
C        1.90843873      15.35517047      13.84498368
H        0.63615541      15.83022554      15.64853557
H        1.90845232      15.47480355      12.84618916
H        0.63615459      17.14586347      14.22460085
H        1.90845221      14.41048538      14.00757184
6
Lattice="2.5445879 0.0 0.0 -0.0 30.0 0.0 0.0 0.0 30.0" Properties=species:S:1:pos:R:3 pbc="T T T"
C        0.63614957      15.96722490      14.41831635
C        1.90843894      15.35676039      13.84586307
H        0.63615451      15.83328628      15.62657464
H        1.90845027      15.47708296      12.83175764
H        0.63615383      17.13069123      14.22781904
H        1.90845018      14.38911281      14.01171986
6
Lattice="2.5445879 0.0 0.0 -0.0 30.0 0.0 0.0 0.0 30.0" Properties=species:S:1:pos:R:3 pbc="T T T"
C        0.63614966      15.96825392      14.41987308
C        1.90843915      15.35835031      13.84674245
H        0.63615361      15.83634702      15.60461371
H        1.90844822      15.47936236      12.81732611
H        0.63615306      17.11551898      14.23103723
H        1.90844814      14.36774025      14.01586789
6
Lattice="2.5445879 0.0 0.0 -0.0 30.0 0.0 0.0 0.0 30.0" Properties=species:S:1:pos:R:3 pbc="T T T"
C        0.63614974      15.96928294      14.42142981
C        1.90843936      15.35994023      13.84762184
H        0.63615271      15.83940777      15.58265278
H        1.90844616      15.48164177      12.80289458
H        0.63615230      17.10034674      14.23425542
H        1.90844611      14.34636769      14.02001592
6
Lattice="2.5445879 0.0 0.0 -0.0 30.0 0.0 0.0 0.0 30.0" Properties=species:S:1:pos:R:3 pbc="T T T"
C        0.63614983      15.97031196      14.42298654
C        1.90843958      15.36153016      13.84850123
H        0.63615180      15.84246851      15.56069186
H        1.90844411      15.48392118      12.78846305
H        0.63615153      17.08517449      14.23747362
H        1.90844407      14.32499513      14.02416395
6
Lattice="2.5445879 0.0 0.0 -0.0 30.0 0.0 0.0 0.0 30.0" Properties=species:S:1:pos:R:3 pbc="T T T"
C        0.63614991      15.97134098      14.42454327
C        1.90843979      15.36312008      13.84938061
H        0.63615090      15.84552926      15.53873093
H        1.90844205      15.48620059      12.77403153
H        0.63615077      17.07000225      14.24069181
H        1.90844204      14.30362256      14.02831197
6
Lattice="2.5445879 0.0 0.0 -0.0 30.0 0.0 0.0 0.0 30.0" Properties=species:S:1:pos:R:3 pbc="T T T"
C        0.63615000      15.97237000      14.42610000
C        1.90844000      15.36471000      13.85026000
H        0.63615000      15.84859000      15.51677000
H        1.90844000      15.48848000      12.75960000
H        0.63615000      17.05483000      14.24391000
H        1.90844000      14.28225000      14.03246000
6
Lattice="2.5445879 0.0 0.0 -0.0 30.0 0.0 0.0 0.0 30.0" Properties=species:S:1:pos:R:3 pbc="T T T"
C        0.63615009      15.97339902      14.42765673
C        1.90844021      15.36629992      13.85113939
H        0.63614910      15.85165074      15.49480907
H        1.90843795      15.49075941      12.74516847
H        0.63614923      17.03965775      14.24712819
H        1.90843796      14.26087744      14.03660803
6
Lattice="2.5445879 0.0 0.0 -0.0 30.0 0.0 0.0 0.0 30.0" Properties=species:S:1:pos:R:3 pbc="T T T"
C        0.63615017      15.97442804      14.42921346
C        1.90844042      15.36788984      13.85201877
H        0.63614820      15.85471149      15.47284814
H        1.90843589      15.49303882      12.73073695
H        0.63614847      17.02448551      14.25034638
H        1.90843593      14.23950487      14.04075605
6
Lattice="2.5445879 0.0 0.0 -0.0 30.0 0.0 0.0 0.0 30.0" Properties=species:S:1:pos:R:3 pbc="T T T"
C        0.63615026      15.97545706      14.43077019
C        1.90844064      15.36947977      13.85289816
H        0.63614729      15.85777223      15.45088722
H        1.90843384      15.49531823      12.71630542
H        0.63614770      17.00931326      14.25356458
H        1.90843389      14.21813231      14.04490408
6
Lattice="2.5445879 0.0 0.0 -0.0 30.0 0.0 0.0 0.0 30.0" Properties=species:S:1:pos:R:3 pbc="T T T"
C        0.63615034      15.97648608      14.43232692
C        1.90844085      15.37106969      13.85377755
H        0.63614639      15.86083298      15.42892629
H        1.90843178      15.49759764      12.70187389
H        0.63614694      16.99414102      14.25678277
H        1.90843186      14.19675975      14.04905211
6
Lattice="2.5445879 0.0 0.0 -0.0 30.0 0.0 0.0 0.0 30.0" Properties=species:S:1:pos:R:3 pbc="T T T"
C        0.63615043      15.97751510      14.43388365
C        1.90844106      15.37265961      13.85465693
H        0.63614549      15.86389372      15.40696536
H        1.90842973      15.49987704      12.68744236
H        0.63614617      16.97896877      14.26000096
H        1.90842982      14.17538719      14.05320014
6
Lattice="2.5445879 0.0 0.0 -0.0 30.0 0.0 0.0 0.0 30.0" Properties=species:S:1:pos:R:3 pbc="T T T"
C        0.63615052      15.97854412      14.43544038
C        1.90844127      15.37424953      13.85553632
H        0.63614459      15.86695446      15.38500443
H        1.90842768      15.50215645      12.67301084
H        0.63614541      16.96379653      14.26321915
H        1.90842779      14.15401462      14.05734816
6
Lattice="2.5445879 0.0 0.0 -0.0 30.0 0.0 0.0 0.0 30.0" Properties=species:S:1:pos:R:3 pbc="T T T"
C        0.63615060      15.97957314      14.43699711
C        1.90844149      15.37583946      13.85641570
H        0.63614368      15.87001521      15.36304350
H        1.90842562      15.50443586      12.65857931
H        0.63614464      16.94862428      14.26643734
H        1.90842575      14.13264206      14.06149619
6
Lattice="2.5445879 0.0 0.0 -0.0 30.0 0.0 0.0 0.0 30.0" Properties=species:S:1:pos:R:3 pbc="T T T"
C        0.63615052      15.97854412      14.43544038
C        1.90844127      15.37424953      13.85553632
H        0.63614459      15.86695446      15.38500443
H        1.90842768      15.50215645      12.67301084
H        0.63614541      16.96379653      14.26321915
H        1.90842779      14.15401462      14.05734816
6
Lattice="2.5445879 0.0 0.0 -0.0 30.0 0.0 0.0 0.0 30.0" Properties=species:S:1:pos:R:3 pbc="T T T"
C        0.63615043      15.97751510      14.43388365
C        1.90844106      15.37265961      13.85465693
H        0.63614549      15.86389372      15.40696536
H        1.90842973      15.49987704      12.68744236
H        0.63614617      16.97896877      14.26000096
H        1.90842982      14.17538719      14.05320014
6
Lattice="2.5445879 0.0 0.0 -0.0 30.0 0.0 0.0 0.0 30.0" Properties=species:S:1:pos:R:3 pbc="T T T"
C        0.63615034      15.97648608      14.43232692
C        1.90844085      15.37106969      13.85377755
H        0.63614639      15.86083298      15.42892629
H        1.90843178      15.49759764      12.70187389
H        0.63614694      16.99414102      14.25678277
H        1.90843186      14.19675975      14.04905211
6
Lattice="2.5445879 0.0 0.0 -0.0 30.0 0.0 0.0 0.0 30.0" Properties=species:S:1:pos:R:3 pbc="T T T"
C        0.63615026      15.97545706      14.43077019
C        1.90844064      15.36947977      13.85289816
H        0.63614729      15.85777223      15.45088722
H        1.90843384      15.49531823      12.71630542
H        0.63614770      17.00931326      14.25356458
H        1.90843389      14.21813231      14.04490408
6
Lattice="2.5445879 0.0 0.0 -0.0 30.0 0.0 0.0 0.0 30.0" Properties=species:S:1:pos:R:3 pbc="T T T"
C        0.63615017      15.97442804      14.42921346
C        1.90844042      15.36788984      13.85201877
H        0.63614820      15.85471149      15.47284814
H        1.90843589      15.49303882      12.73073695
H        0.63614847      17.02448551      14.25034638
H        1.90843593      14.23950487      14.04075605
6
Lattice="2.5445879 0.0 0.0 -0.0 30.0 0.0 0.0 0.0 30.0" Properties=species:S:1:pos:R:3 pbc="T T T"
C        0.63615009      15.97339902      14.42765673
C        1.90844021      15.36629992      13.85113939
H        0.63614910      15.85165074      15.49480907
H        1.90843795      15.49075941      12.74516847
H        0.63614923      17.03965775      14.24712819
H        1.90843796      14.26087744      14.03660803
6
Lattice="2.5445879 0.0 0.0 -0.0 30.0 0.0 0.0 0.0 30.0" Properties=species:S:1:pos:R:3 pbc="T T T"
C        0.63615000      15.97237000      14.42610000
C        1.90844000      15.36471000      13.85026000
H        0.63615000      15.84859000      15.51677000
H        1.90844000      15.48848000      12.75960000
H        0.63615000      17.05483000      14.24391000
H        1.90844000      14.28225000      14.03246000
6
Lattice="2.5445879 0.0 0.0 -0.0 30.0 0.0 0.0 0.0 30.0" Properties=species:S:1:pos:R:3 pbc="T T T"
C        0.63614991      15.97134098      14.42454327
C        1.90843979      15.36312008      13.84938061
H        0.63615090      15.84552926      15.53873093
H        1.90844205      15.48620059      12.77403153
H        0.63615077      17.07000225      14.24069181
H        1.90844204      14.30362256      14.02831197
6
Lattice="2.5445879 0.0 0.0 -0.0 30.0 0.0 0.0 0.0 30.0" Properties=species:S:1:pos:R:3 pbc="T T T"
C        0.63614983      15.97031196      14.42298654
C        1.90843958      15.36153016      13.84850123
H        0.63615180      15.84246851      15.56069186
H        1.90844411      15.48392118      12.78846305
H        0.63615153      17.08517449      14.23747362
H        1.90844407      14.32499513      14.02416395
6
Lattice="2.5445879 0.0 0.0 -0.0 30.0 0.0 0.0 0.0 30.0" Properties=species:S:1:pos:R:3 pbc="T T T"
C        0.63614974      15.96928294      14.42142981
C        1.90843936      15.35994023      13.84762184
H        0.63615271      15.83940777      15.58265278
H        1.90844616      15.48164177      12.80289458
H        0.63615230      17.10034674      14.23425542
H        1.90844611      14.34636769      14.02001592
6
Lattice="2.5445879 0.0 0.0 -0.0 30.0 0.0 0.0 0.0 30.0" Properties=species:S:1:pos:R:3 pbc="T T T"
C        0.63614966      15.96825392      14.41987308
C        1.90843915      15.35835031      13.84674245
H        0.63615361      15.83634702      15.60461371
H        1.90844822      15.47936236      12.81732611
H        0.63615306      17.11551898      14.23103723
H        1.90844814      14.36774025      14.01586789
6
Lattice="2.5445879 0.0 0.0 -0.0 30.0 0.0 0.0 0.0 30.0" Properties=species:S:1:pos:R:3 pbc="T T T"
C        0.63614957      15.96722490      14.41831635
C        1.90843894      15.35676039      13.84586307
H        0.63615451      15.83328628      15.62657464
H        1.90845027      15.47708296      12.83175764
H        0.63615383      17.13069123      14.22781904
H        1.90845018      14.38911281      14.01171986
6
Lattice="2.5445879 0.0 0.0 -0.0 30.0 0.0 0.0 0.0 30.0" Properties=species:S:1:pos:R:3 pbc="T T T"
C        0.63614948      15.96619588      14.41675962
C        1.90843873      15.35517047      13.84498368
H        0.63615541      15.83022554      15.64853557
H        1.90845232      15.47480355      12.84618916
H        0.63615459      17.14586347      14.22460085
H        1.90845221      14.41048538      14.00757184
