6
Lattice="2.5445879 0.0 0.0 -0.0 30.0 0.0 0.0 0.0 30.0" Properties=species:S:1:pos:R:3 pbc="T T T"
C        0.63613617      15.97235761      14.42608420
C        1.90841095      15.36472669      13.85028158
H        0.43712077      15.84857338      15.51675716
H        2.10771691      15.48845145      12.75960999
H        0.83540073      17.05481778      14.24388394
H        1.70947041      14.28225361      14.03241987
6
Lattice="2.5445879 0.0 0.0 -0.0 30.0 0.0 0.0 0.0 30.0" Properties=species:S:1:pos:R:3 pbc="T T T"
C        0.63613815      15.97235938      14.42608646
C        1.90841510      15.36472431      13.85027849
H        0.46555352      15.84857575      15.51675899
H        2.07924878      15.48845553      12.75960856
H        0.80693634      17.05481953      14.24388766
H        1.73789464      14.28225309      14.03242560
6
Lattice="2.5445879 0.0 0.0 -0.0 30.0 0.0 0.0 0.0 30.0" Properties=species:S:1:pos:R:3 pbc="T T T"
C        0.63614012      15.97236115      14.42608871
C        1.90841925      15.36472192      13.85027541
H        0.49398627      15.84857813      15.51676083
H        2.05078065      15.48845961      12.75960713
H        0.77847195      17.05482127      14.24389138
H        1.76631886      14.28225258      14.03243134
6
Lattice="2.5445879 0.0 0.0 -0.0 30.0 0.0 0.0 0.0 30.0" Properties=species:S:1:pos:R:3 pbc="T T T"
C        0.63614210      15.97236292      14.42609097
C        1.90842340      15.36471954      13.85027233
H        0.52241901      15.84858050      15.51676266
H        2.02231252      15.48846369      12.75960571
H        0.75000756      17.05482302      14.24389511
H        1.79474309      14.28225206      14.03243707
6
Lattice="2.5445879 0.0 0.0 -0.0 30.0 0.0 0.0 0.0 30.0" Properties=species:S:1:pos:R:3 pbc="T T T"
C        0.63614407      15.97236469      14.42609323
C        1.90842755      15.36471715      13.85026925
H        0.55085176      15.84858288      15.51676450
H        1.99384439      15.48846777      12.75960428
H        0.72154317      17.05482476      14.24389883
H        1.82316732      14.28225155      14.03244280
6
Lattice="2.5445879 0.0 0.0 -0.0 30.0 0.0 0.0 0.0 30.0" Properties=species:S:1:pos:R:3 pbc="T T T"
C        0.63614605      15.97236646      14.42609549
C        1.90843170      15.36471477      13.85026616
H        0.57928451      15.84858525      15.51676633
H        1.96537626      15.48847184      12.75960285
H        0.69307878      17.05482651      14.24390255
H        1.85159155      14.28225103      14.03244853
6
Lattice="2.5445879 0.0 0.0 -0.0 30.0 0.0 0.0 0.0 30.0" Properties=species:S:1:pos:R:3 pbc="T T T"
C        0.63614802      15.97236823      14.42609774
C        1.90843585      15.36471238      13.85026308
H        0.60771725      15.84858763      15.51676817
H        1.93690813      15.48847592      12.75960143
H        0.66461439      17.05482825      14.24390628
H        1.88001577      14.28225052      14.03245427
6
Lattice="2.5445879 0.0 0.0 -0.0 30.0 0.0 0.0 0.0 30.0" Properties=species:S:1:pos:R:3 pbc="T T T"
C        0.63615000      15.97237000      14.42610000
C        1.90844000      15.36471000      13.85026000
H        0.63615000      15.84859000      15.51677000
H        1.90844000      15.48848000      12.75960000
H        0.63615000      17.05483000      14.24391000
H        1.90844000      14.28225000      14.03246000
6
Lattice="2.5445879 0.0 0.0 -0.0 30.0 0.0 0.0 0.0 30.0" Properties=species:S:1:pos:R:3 pbc="T T T"
C        0.63615198      15.97237177      14.42610226
C        1.90844415      15.36470762      13.85025692
H        0.66458275      15.84859237      15.51677183
H        1.87997187      15.48848408      12.75959857
H        0.60768561      17.05483175      14.24391372
H        1.93686423      14.28224948      14.03246573
6
Lattice="2.5445879 0.0 0.0 -0.0 30.0 0.0 0.0 0.0 30.0" Properties=species:S:1:pos:R:3 pbc="T T T"
C        0.63615395      15.97237354      14.42610451
C        1.90844830      15.36470523      13.85025384
H        0.69301549      15.84859475      15.51677367
H        1.85150374      15.48848816      12.75959715
H        0.57922122      17.05483349      14.24391745
H        1.96528845      14.28224897      14.03247147
6
Lattice="2.5445879 0.0 0.0 -0.0 30.0 0.0 0.0 0.0 30.0" Properties=species:S:1:pos:R:3 pbc="T T T"
C        0.63615593      15.97237531      14.42610677
C        1.90845245      15.36470285      13.85025075
H        0.72144824      15.84859712      15.51677550
H        1.82303561      15.48849223      12.75959572
H        0.55075683      17.05483524      14.24392117
H        1.99371268      14.28224845      14.03247720
6
Lattice="2.5445879 0.0 0.0 -0.0 30.0 0.0 0.0 0.0 30.0" Properties=species:S:1:pos:R:3 pbc="T T T"
C        0.63615790      15.97237708      14.42610903
C        1.90845660      15.36470046      13.85024767
H        0.74988099      15.84859950      15.51677734
H        1.79456748      15.48849631      12.75959429
H        0.52229244      17.05483698      14.24392489
H        2.02213691      14.28224794      14.03248293
6
Lattice="2.5445879 0.0 0.0 -0.0 30.0 0.0 0.0 0.0 30.0" Properties=species:S:1:pos:R:3 pbc="T T T"
C        0.63615988      15.97237885      14.42611129
C        1.90846075      15.36469808      13.85024459
H        0.77831373      15.84860187      15.51677917
H        1.76609935      15.48850039      12.75959287
H        0.49382805      17.05483873      14.24392862
H        2.05056114      14.28224742      14.03248866
6
Lattice="2.5445879 0.0 0.0 -0.0 30.0 0.0 0.0 0.0 30.0" Properties=species:S:1:pos:R:3 pbc="T T T"
C        0.63616185      15.97238062      14.42611354
C        1.90846490      15.36469569      13.85024151
H        0.80674648      15.84860425      15.51678101
H        1.73763122      15.48850447      12.75959144
H        0.46536366      17.05484047      14.24393234
H        2.07898536      14.28224691      14.03249440
6
Lattice="2.5445879 0.0 0.0 -0.0 30.0 0.0 0.0 0.0 30.0" Properties=species:S:1:pos:R:3 pbc="T T T"
C        0.63616383      15.97238239      14.42611580
C        1.90846905      15.36469331      13.85023842
H        0.83517923      15.84860662      15.51678284
H        1.70916309      15.48850855      12.75959001
H        0.43689927      17.05484222      14.24393606
H        2.10740959      14.28224639      14.03250013
6
Lattice="2.5445879 0.0 0.0 -0.0 30.0 0.0 0.0 0.0 30.0" Properties=species:S:1:pos:R:3 pbc="T T T"
C        0.63616185      15.97238062      14.42611354
C        1.90846490      15.36469569      13.85024151
H        0.80674648      15.84860425      15.51678101
H        1.73763122      15.48850447      12.75959144
H        0.46536366      17.05484047      14.24393234
H        2.07898536      14.28224691      14.03249440
6
Lattice="2.5445879 0.0 0.0 -0.0 30.0 0.0 0.0 0.0 30.0" Properties=species:S:1:pos:R:3 pbc="T T T"
C        0.63615988      15.97237885      14.42611129
C        1.90846075      15.36469808      13.85024459
H        0.77831373      15.84860187      15.51677917
H        1.76609935      15.48850039      12.75959287
H        0.49382805      17.05483873      14.24392862
H        2.05056114      14.28224742      14.03248866
6
Lattice="2.5445879 0.0 0.0 -0.0 30.0 0.0 0.0 0.0 30.0" Properties=species:S:1:pos:R:3 pbc="T T T"
C        0.63615790      15.97237708      14.42610903
C        1.90845660      15.36470046      13.85024767
H        0.74988099      15.84859950      15.51677734
H        1.79456748      15.48849631      12.75959429
H        0.52229244      17.05483698      14.24392489
H        2.02213691      14.28224794      14.03248293
6
Lattice="2.5445879 0.0 0.0 -0.0 30.0 0.0 0.0 0.0 30.0" Properties=species:S:1:pos:R:3 pbc="T T T"
C        0.63615593      15.97237531      14.42610677
C        1.90845245      15.36470285      13.85025075
H        0.72144824      15.84859712      15.51677550
H        1.82303561      15.48849223      12.75959572
H        0.55075683      17.05483524      14.24392117
H        1.99371268      14.28224845      14.03247720
6
Lattice="2.5445879 0.0 0.0 -0.0 30.0 0.0 0.0 0.0 30.0" Properties=species:S:1:pos:R:3 pbc="T T T"
C        0.63615395      15.97237354      14.42610451
C        1.90844830      15.36470523      13.85025384
H        0.69301549      15.84859475      15.51677367
H        1.85150374      15.48848816      12.75959715
H        0.57922122      17.05483349      14.24391745
H        1.96528845      14.28224897      14.03247147
6
Lattice="2.5445879 0.0 0.0 -0.0 30.0 0.0 0.0 0.0 30.0" Properties=species:S:1:pos:R:3 pbc="T T T"
C        0.63615198      15.97237177      14.42610226
C        1.90844415      15.36470762      13.85025692
H        0.66458275      15.84859237      15.51677183
H        1.87997187      15.48848408      12.75959857
H        0.60768561      17.05483175      14.24391372
H        1.93686423      14.28224948      14.03246573
6
Lattice="2.5445879 0.0 0.0 -0.0 30.0 0.0 0.0 0.0 30.0" Properties=species:S:1:pos:R:3 pbc="T T T"
C        0.63615000      15.97237000      14.42610000
C        1.90844000      15.36471000      13.85026000
H        0.63615000      15.84859000      15.51677000
H        1.90844000      15.48848000      12.75960000
H        0.63615000      17.05483000      14.24391000
H        1.90844000      14.28225000      14.03246000
6
Lattice="2.5445879 0.0 0.0 -0.0 30.0 0.0 0.0 0.0 30.0" Properties=species:S:1:pos:R:3 pbc="T T T"
C        0.63614802      15.97236823      14.42609774
C        1.90843585      15.36471238      13.85026308
H        0.60771725      15.84858763      15.51676817
H        1.93690813      15.48847592      12.75960143
H        0.66461439      17.05482825      14.24390628
H        1.88001577      14.28225052      14.03245427
6
Lattice="2.5445879 0.0 0.0 -0.0 30.0 0.0 0.0 0.0 30.0" Properties=species:S:1:pos:R:3 pbc="T T T"
C        0.63614605      15.97236646      14.42609549
C        1.90843170      15.36471477      13.85026616
H        0.57928451      15.84858525      15.51676633
H        1.96537626      15.48847184      12.75960285
H        0.69307878      17.05482651      14.24390255
H        1.85159155      14.28225103      14.03244853
6
Lattice="2.5445879 0.0 0.0 -0.0 30.0 0.0 0.0 0.0 30.0" Properties=species:S:1:pos:R:3 pbc="T T T"
C        0.63614407      15.97236469      14.42609323
C        1.90842755      15.36471715      13.85026925
H        0.55085176      15.84858288      15.51676450
H        1.99384439      15.48846777      12.75960428
H        0.72154317      17.05482476      14.24389883
H        1.82316732      14.28225155      14.03244280
6
Lattice="2.5445879 0.0 0.0 -0.0 30.0 0.0 0.0 0.0 30.0" Properties=species:S:1:pos:R:3 pbc="T T T"
C        0.63614210      15.97236292      14.42609097
C        1.90842340      15.36471954      13.85027233
H        0.52241901      15.84858050      15.51676266
H        2.02231252      15.48846369      12.75960571
H        0.75000756      17.05482302      14.24389511
H        1.79474309      14.28225206      14.03243707
6
Lattice="2.5445879 0.0 0.0 -0.0 30.0 0.0 0.0 0.0 30.0" Properties=species:S:1:pos:R:3 pbc="T T T"
C        0.63614012      15.97236115      14.42608871
C        1.90841925      15.36472192      13.85027541
H        0.49398627      15.84857813      15.51676083
H        2.05078065      15.48845961      12.75960713
H        0.77847195      17.05482127      14.24389138
H        1.76631886      14.28225258      14.03243134
6
Lattice="2.5445879 0.0 0.0 -0.0 30.0 0.0 0.0 0.0 30.0" Properties=species:S:1:pos:R:3 pbc="T T T"
C        0.63613815      15.97235938      14.42608646
C        1.90841510      15.36472431      13.85027849
H        0.46555352      15.84857575      15.51675899
H        2.07924878      15.48845553      12.75960856
H        0.80693634      17.05481953      14.24388766
H        1.73789464      14.28225309      14.03242560
