6
Lattice="2.5445879 0.0 0.0 -0.0 30.0 0.0 0.0 0.0 30.0" Properties=species:S:1:pos:R:3 pbc="T T T"
C        0.63618617      15.97150025      14.43726971
C        1.90850883      15.36599718      13.83330734
H        0.63576236      15.86571761      15.37015259
H        1.90798574      15.46206053      12.97712037
H        0.63578306      17.05323625      14.24843438
H        1.90799836      14.28818840      14.02570830
6
Lattice="2.5445879 0.0 0.0 -0.0 30.0 0.0 0.0 0.0 30.0" Properties=species:S:1:pos:R:3 pbc="T T T"
C        0.63618100      15.97162450      14.43567404
C        1.90849900      15.36581330      13.83572915
H        0.63581774      15.86327081      15.39109794
H        1.90805064      15.46583474      12.94604604
H        0.63583548      17.05346393      14.24778804
H        1.90806146      14.28734006      14.02667283
6
Lattice="2.5445879 0.0 0.0 -0.0 30.0 0.0 0.0 0.0 30.0" Properties=species:S:1:pos:R:3 pbc="T T T"
C        0.63617584      15.97174875      14.43407837
C        1.90848917      15.36562941      13.83815096
H        0.63587312      15.86082401      15.41204328
H        1.90811553      15.46960895      12.91497170
H        0.63588790      17.05369160      14.24714170
H        1.90812455      14.28649172      14.02763736
6
Lattice="2.5445879 0.0 0.0 -0.0 30.0 0.0 0.0 0.0 30.0" Properties=species:S:1:pos:R:3 pbc="T T T"
C        0.63617067      15.97187300      14.43248269
C        1.90847933      15.36544553      13.84057277
H        0.63592849      15.85837721      15.43298862
H        1.90818043      15.47338316      12.88389736
H        0.63594032      17.05391928      14.24649536
H        1.90818764      14.28564337      14.02860189
6
Lattice="2.5445879 0.0 0.0 -0.0 30.0 0.0 0.0 0.0 30.0" Properties=species:S:1:pos:R:3 pbc="T T T"
C        0.63616550      15.97199725      14.43088702
C        1.90846950      15.36526165      13.84299458
H        0.63598387      15.85593041      15.45393397
H        1.90824532      15.47715737      12.85282302
H        0.63599274      17.05414696      14.24584902
H        1.90825073      14.28479503      14.02956641
6
Lattice="2.5445879 0.0 0.0 -0.0 30.0 0.0 0.0 0.0 30.0" Properties=species:S:1:pos:R:3 pbc="T T T"
C        0.63616033      15.97212150      14.42929135
C        1.90845967      15.36507777      13.84541638
H        0.63603925      15.85348360      15.47487931
H        1.90831021      15.48093158      12.82174868
H        0.63604516      17.05437464      14.24520268
H        1.90831382      14.28394669      14.03053094
6
Lattice="2.5445879 0.0 0.0 -0.0 30.0 0.0 0.0 0.0 30.0" Properties=species:S:1:pos:R:3 pbc="T T T"
C        0.63615517      15.97224575      14.42769567
C        1.90844983      15.36489388      13.84783819
H        0.63609462      15.85103680      15.49582466
H        1.90837511      15.48470579      12.79067434
H        0.63609758      17.05460232      14.24455634
H        1.90837691      14.28309834      14.03149547
6
Lattice="2.5445879 0.0 0.0 -0.0 30.0 0.0 0.0 0.0 30.0" Properties=species:S:1:pos:R:3 pbc="T T T"
C        0.63615000      15.97237000      14.42610000
C        1.90844000      15.36471000      13.85026000
H        0.63615000      15.84859000      15.51677000
H        1.90844000      15.48848000      12.75960000
H        0.63615000      17.05483000      14.24391000
H        1.90844000      14.28225000      14.03246000
6
Lattice="2.5445879 0.0 0.0 -0.0 30.0 0.0 0.0 0.0 30.0" Properties=species:S:1:pos:R:3 pbc="T T T"
C        0.63614483      15.97249425      14.42450433
C        1.90843017      15.36452612      13.85268181
H        0.63620538      15.84614320      15.53771534
H        1.90850489      15.49225421      12.72852566
H        0.63620242      17.05505768      14.24326366
H        1.90850309      14.28140166      14.03342453
6
Lattice="2.5445879 0.0 0.0 -0.0 30.0 0.0 0.0 0.0 30.0" Properties=species:S:1:pos:R:3 pbc="T T T"
C        0.63613967      15.97261850      14.42290865
C        1.90842033      15.36434223      13.85510362
H        0.63626075      15.84369640      15.55866069
H        1.90856979      15.49602842      12.69745132
H        0.63625484      17.05528536      14.24261732
H        1.90856618      14.28055331      14.03438906
6
Lattice="2.5445879 0.0 0.0 -0.0 30.0 0.0 0.0 0.0 30.0" Properties=species:S:1:pos:R:3 pbc="T T T"
C        0.63613450      15.97274275      14.42131298
C        1.90841050      15.36415835      13.85752542
H        0.63631613      15.84124959      15.57960603
H        1.90863468      15.49980263      12.66637698
H        0.63630726      17.05551304      14.24197098
H        1.90862927      14.27970497      14.03535359
6
Lattice="2.5445879 0.0 0.0 -0.0 30.0 0.0 0.0 0.0 30.0" Properties=species:S:1:pos:R:3 pbc="T T T"
C        0.63612933      15.97286700      14.41971731
C        1.90840067      15.36397447      13.85994723
H        0.63637151      15.83880279      15.60055138
H        1.90869957      15.50357684      12.63530264
H        0.63635968      17.05574072      14.24132464
H        1.90869236      14.27885663      14.03631811
6
Lattice="2.5445879 0.0 0.0 -0.0 30.0 0.0 0.0 0.0 30.0" Properties=species:S:1:pos:R:3 pbc="T T T"
C        0.63612416      15.97299125      14.41812163
C        1.90839083      15.36379059      13.86236904
H        0.63642688      15.83635599      15.62149672
H        1.90876447      15.50735105      12.60422830
H        0.63641210      17.05596840      14.24067830
H        1.90875545      14.27800828      14.03728264
6
Lattice="2.5445879 0.0 0.0 -0.0 30.0 0.0 0.0 0.0 30.0" Properties=species:S:1:pos:R:3 pbc="T T T"
C        0.63611900      15.97311550      14.41652596
C        1.90838100      15.36360670      13.86479085
H        0.63648226      15.83390919      15.64244206
H        1.90882936      15.51112526      12.57315396
H        0.63646452      17.05619607      14.24003196
H        1.90881854      14.27715994      14.03824717
6
Lattice="2.5445879 0.0 0.0 -0.0 30.0 0.0 0.0 0.0 30.0" Properties=species:S:1:pos:R:3 pbc="T T T"
C        0.63611383      15.97323975      14.41493029
C        1.90837117      15.36342282      13.86721266
H        0.63653764      15.83146239      15.66338741
H        1.90889426      15.51489947      12.54207963
H        0.63651694      17.05642375      14.23938562
H        1.90888164      14.27631160      14.03921170
6
Lattice="2.5445879 0.0 0.0 -0.0 30.0 0.0 0.0 0.0 30.0" Properties=species:S:1:pos:R:3 pbc="T T T"
C        0.63611900      15.97311550      14.41652596
C        1.90838100      15.36360670      13.86479085
H        0.63648226      15.83390919      15.64244206
H        1.90882936      15.51112526      12.57315396
H        0.63646452      17.05619607      14.24003196
H        1.90881854      14.27715994      14.03824717
6
Lattice="2.5445879 0.0 0.0 -0.0 30.0 0.0 0.0 0.0 30.0" Properties=species:S:1:pos:R:3 pbc="T T T"
C        0.63612416      15.97299125      14.41812163
C        1.90839083      15.36379059      13.86236904
H        0.63642688      15.83635599      15.62149672
H        1.90876447      15.50735105      12.60422830
H        0.63641210      17.05596840      14.24067830
H        1.90875545      14.27800828      14.03728264
6
Lattice="2.5445879 0.0 0.0 -0.0 30.0 0.0 0.0 0.0 30.0" Properties=species:S:1:pos:R:3 pbc="T T T"
C        0.63612933      15.97286700      14.41971731
C        1.90840067      15.36397447      13.85994723
H        0.63637151      15.83880279      15.60055138
H        1.90869957      15.50357684      12.63530264
H        0.63635968      17.05574072      14.24132464
H        1.90869236      14.27885663      14.03631811
6
Lattice="2.5445879 0.0 0.0 -0.0 30.0 0.0 0.0 0.0 30.0" Properties=species:S:1:pos:R:3 pbc="T T T"
C        0.63613450      15.97274275      14.42131298
C        1.90841050      15.36415835      13.85752542
H        0.63631613      15.84124959      15.57960603
H        1.90863468      15.49980263      12.66637698
H        0.63630726      17.05551304      14.24197098
H        1.90862927      14.27970497      14.03535359
6
Lattice="2.5445879 0.0 0.0 -0.0 30.0 0.0 0.0 0.0 30.0" Properties=species:S:1:pos:R:3 pbc="T T T"
C        0.63613967      15.97261850      14.42290865
C        1.90842033      15.36434223      13.85510362
H        0.63626075      15.84369640      15.55866069
H        1.90856979      15.49602842      12.69745132
H        0.63625484      17.05528536      14.24261732
H        1.90856618      14.28055331      14.03438906
6
Lattice="2.5445879 0.0 0.0 -0.0 30.0 0.0 0.0 0.0 30.0" Properties=species:S:1:pos:R:3 pbc="T T T"
C        0.63614483      15.97249425      14.42450433
C        1.90843017      15.36452612      13.85268181
H        0.63620538      15.84614320      15.53771534
H        1.90850489      15.49225421      12.72852566
H        0.63620242      17.05505768      14.24326366
H        1.90850309      14.28140166      14.03342453
6
Lattice="2.5445879 0.0 0.0 -0.0 30.0 0.0 0.0 0.0 30.0" Properties=species:S:1:pos:R:3 pbc="T T T"
C        0.63615000      15.97237000      14.42610000
C        1.90844000      15.36471000      13.85026000
H        0.63615000      15.84859000      15.51677000
H        1.90844000      15.48848000      12.75960000
H        0.63615000      17.05483000      14.24391000
H        1.90844000      14.28225000      14.03246000
6
Lattice="2.5445879 0.0 0.0 -0.0 30.0 0.0 0.0 0.0 30.0" Properties=species:S:1:pos:R:3 pbc="T T T"
C        0.63615517      15.97224575      14.42769567
C        1.90844983      15.36489388      13.84783819
H        0.63609462      15.85103680      15.49582466
H        1.90837511      15.48470579      12.79067434
H        0.63609758      17.05460232      14.24455634
H        1.90837691      14.28309834      14.03149547
6
Lattice="2.5445879 0.0 0.0 -0.0 30.0 0.0 0.0 0.0 30.0" Properties=species:S:1:pos:R:3 pbc="T T T"
C        0.63616033      15.97212150      14.42929135
C        1.90845967      15.36507777      13.84541638
H        0.63603925      15.85348360      15.47487931
H        1.90831021      15.48093158      12.82174868
H        0.63604516      17.05437464      14.24520268
H        1.90831382      14.28394669      14.03053094
6
Lattice="2.5445879 0.0 0.0 -0.0 30.0 0.0 0.0 0.0 30.0" Properties=species:S:1:pos:R:3 pbc="T T T"
C        0.63616550      15.97199725      14.43088702
C        1.90846950      15.36526165      13.84299458
H        0.63598387      15.85593041      15.45393397
H        1.90824532      15.47715737      12.85282302
H        0.63599274      17.05414696      14.24584902
H        1.90825073      14.28479503      14.02956641
6
Lattice="2.5445879 0.0 0.0 -0.0 30.0 0.0 0.0 0.0 30.0" Properties=species:S:1:pos:R:3 pbc="T T T"
C        0.63617067      15.97187300      14.43248269
C        1.90847933      15.36544553      13.84057277
H        0.63592849      15.85837721      15.43298862
H        1.90818043      15.47338316      12.88389736
H        0.63594032      17.05391928      14.24649536
H        1.90818764      14.28564337      14.02860189
6
Lattice="2.5445879 0.0 0.0 -0.0 30.0 0.0 0.0 0.0 30.0" Properties=species:S:1:pos:R:3 pbc="T T T"
C        0.63617584      15.97174875      14.43407837
C        1.90848917      15.36562941      13.83815096
H        0.63587312      15.86082401      15.41204328
H        1.90811553      15.46960895      12.91497170
H        0.63588790      17.05369160      14.24714170
H        1.90812455      14.28649172      14.02763736
6
Lattice="2.5445879 0.0 0.0 -0.0 30.0 0.0 0.0 0.0 30.0" Properties=species:S:1:pos:R:3 pbc="T T T"
C        0.63618100      15.97162450      14.43567404
C        1.90849900      15.36581330      13.83572915
H        0.63581774      15.86327081      15.39109794
H        1.90805064      15.46583474      12.94604604
H        0.63583548      17.05346393      14.24778804
H        1.90806146      14.28734006      14.02667283
