6
Lattice="2.5445879 0.0 0.0 -0.0 30.0 0.0 0.0 0.0 30.0" Properties=species:S:1:pos:R:3 pbc="T T T"
C        0.63616101      15.96319399      14.43984835
C        1.90845999      15.35071089      13.86132972
H        0.63604102      15.86572047      15.36520137
H        1.90830596      15.49879994      12.65561444
H        0.63604619      17.14689482      14.23027826
H        1.90831086      14.43887465      14.00585965
6
Lattice="2.5445879 0.0 0.0 -0.0 30.0 0.0 0.0 0.0 30.0" Properties=species:S:1:pos:R:3 pbc="T T T"
C        0.63615944      15.96450485      14.43788430
C        1.90845713      15.35271077      13.85974833
H        0.63605659      15.86327326      15.38685404
H        1.90832511      15.49732567      12.67046952
H        0.63606102      17.13374271      14.23222565
H        1.90832931      14.41649970      14.00965970
6
Lattice="2.5445879 0.0 0.0 -0.0 30.0 0.0 0.0 0.0 30.0" Properties=species:S:1:pos:R:3 pbc="T T T"
C        0.63615786      15.96581571      14.43592025
C        1.90845428      15.35471064      13.85816694
H        0.63607216      15.86082605      15.40850670
H        1.90834425      15.49585139      12.68532460
H        0.63607585      17.12059059      14.23417305
H        1.90834776      14.39412475      14.01345975
6
Lattice="2.5445879 0.0 0.0 -0.0 30.0 0.0 0.0 0.0 30.0" Properties=species:S:1:pos:R:3 pbc="T T T"
C        0.63615629      15.96712657      14.43395620
C        1.90845142      15.35671051      13.85658555
H        0.63608773      15.85837884      15.43015936
H        1.90836340      15.49437711      12.70017968
H        0.63609068      17.10743847      14.23612044
H        1.90836620      14.37174980      14.01725980
6
Lattice="2.5445879 0.0 0.0 -0.0 30.0 0.0 0.0 0.0 30.0" Properties=species:S:1:pos:R:3 pbc="T T T"
C        0.63615472      15.96843742      14.43199215
C        1.90844857      15.35871038      13.85500416
H        0.63610329      15.85593163      15.45181202
H        1.90838255      15.49290283      12.71503476
H        0.63610551      17.09428635      14.23806783
H        1.90838465      14.34937485      14.02105985
6
Lattice="2.5445879 0.0 0.0 -0.0 30.0 0.0 0.0 0.0 30.0" Properties=species:S:1:pos:R:3 pbc="T T T"
C        0.63615315      15.96974828      14.43002810
C        1.90844571      15.36071026      13.85342278
H        0.63611886      15.85348442      15.47346468
H        1.90840170      15.49142856      12.72988984
H        0.63612034      17.08113424      14.24001522
H        1.90840310      14.32699990      14.02485990
6
Lattice="2.5445879 0.0 0.0 -0.0 30.0 0.0 0.0 0.0 30.0" Properties=species:S:1:pos:R:3 pbc="T T T"
C        0.63615157      15.97105914      14.42806405
C        1.90844286      15.36271013      13.85184139
H        0.63613443      15.85103721      15.49511734
H        1.90842085      15.48995428      12.74474492
H        0.63613517      17.06798212      14.24196261
H        1.90842155      14.30462495      14.02865995
6
Lattice="2.5445879 0.0 0.0 -0.0 30.0 0.0 0.0 0.0 30.0" Properties=species:S:1:pos:R:3 pbc="T T T"
C        0.63615000      15.97237000      14.42610000
C        1.90844000      15.36471000      13.85026000
H        0.63615000      15.84859000      15.51677000
H        1.90844000      15.48848000      12.75960000
H        0.63615000      17.05483000      14.24391000
H        1.90844000      14.28225000      14.03246000
6
Lattice="2.5445879 0.0 0.0 -0.0 30.0 0.0 0.0 0.0 30.0" Properties=species:S:1:pos:R:3 pbc="T T T"
C        0.63614843      15.97368086      14.42413595
C        1.90843714      15.36670987      13.84867861
H        0.63616557      15.84614279      15.53842266
H        1.90845915      15.48700572      12.77445508
H        0.63616483      17.04167788      14.24585739
H        1.90845845      14.25987505      14.03626005
6
Lattice="2.5445879 0.0 0.0 -0.0 30.0 0.0 0.0 0.0 30.0" Properties=species:S:1:pos:R:3 pbc="T T T"
C        0.63614685      15.97499172      14.42217190
C        1.90843429      15.36870974      13.84709722
H        0.63618114      15.84369558      15.56007532
H        1.90847830      15.48553144      12.78931016
H        0.63617966      17.02852576      14.24780478
H        1.90847690      14.23750010      14.04006010
6
Lattice="2.5445879 0.0 0.0 -0.0 30.0 0.0 0.0 0.0 30.0" Properties=species:S:1:pos:R:3 pbc="T T T"
C        0.63614528      15.97630258      14.42020785
C        1.90843143      15.37070962      13.84551584
H        0.63619671      15.84124837      15.58172798
H        1.90849745      15.48405717      12.80416524
H        0.63619449      17.01537365      14.24975217
H        1.90849535      14.21512515      14.04386015
6
Lattice="2.5445879 0.0 0.0 -0.0 30.0 0.0 0.0 0.0 30.0" Properties=species:S:1:pos:R:3 pbc="T T T"
C        0.63614371      15.97761343      14.41824380
C        1.90842858      15.37270949      13.84393445
H        0.63621227      15.83880116      15.60338064
H        1.90851660      15.48258289      12.81902032
H        0.63620932      17.00222153      14.25169956
H        1.90851380      14.19275020      14.04766020
6
Lattice="2.5445879 0.0 0.0 -0.0 30.0 0.0 0.0 0.0 30.0" Properties=species:S:1:pos:R:3 pbc="T T T"
C        0.63614214      15.97892429      14.41627975
C        1.90842572      15.37470936      13.84235306
H        0.63622784      15.83635395      15.62503330
H        1.90853575      15.48110861      12.83387540
H        0.63622415      16.98906941      14.25364695
H        1.90853224      14.17037525      14.05146025
6
Lattice="2.5445879 0.0 0.0 -0.0 30.0 0.0 0.0 0.0 30.0" Properties=species:S:1:pos:R:3 pbc="T T T"
C        0.63614056      15.98023515      14.41431570
C        1.90842287      15.37670923      13.84077167
H        0.63624341      15.83390674      15.64668596
H        1.90855489      15.47963433      12.84873048
H        0.63623898      16.97591729      14.25559435
H        1.90855069      14.14800030      14.05526030
6
Lattice="2.5445879 0.0 0.0 -0.0 30.0 0.0 0.0 0.0 30.0" Properties=species:S:1:pos:R:3 pbc="T T T"
C        0.63613899      15.98154601      14.41235165
C        1.90842001      15.37870911      13.83919028
H        0.63625898      15.83145953      15.66833863
H        1.90857404      15.47816006      12.86358556
H        0.63625381      16.96276518      14.25754174
H        1.90856914      14.12562535      14.05906035
6
Lattice="2.5445879 0.0 0.0 -0.0 30.0 0.0 0.0 0.0 30.0" Properties=species:S:1:pos:R:3 pbc="T T T"
C        0.63614056      15.98023515      14.41431570
C        1.90842287      15.37670923      13.84077167
H        0.63624341      15.83390674      15.64668596
H        1.90855489      15.47963433      12.84873048
H        0.63623898      16.97591729      14.25559435
H        1.90855069      14.14800030      14.05526030
6
Lattice="2.5445879 0.0 0.0 -0.0 30.0 0.0 0.0 0.0 30.0" Properties=species:S:1:pos:R:3 pbc="T T T"
C        0.63614214      15.97892429      14.41627975
C        1.90842572      15.37470936      13.84235306
H        0.63622784      15.83635395      15.62503330
H        1.90853575      15.48110861      12.83387540
H        0.63622415      16.98906941      14.25364695
H        1.90853224      14.17037525      14.05146025
6
Lattice="2.5445879 0.0 0.0 -0.0 30.0 0.0 0.0 0.0 30.0" Properties=species:S:1:pos:R:3 pbc="T T T"
C        0.63614371      15.97761343      14.41824380
C        1.90842858      15.37270949      13.84393445
H        0.63621227      15.83880116      15.60338064
H        1.90851660      15.48258289      12.81902032
H        0.63620932      17.00222153      14.25169956
H        1.90851380      14.19275020      14.04766020
6
Lattice="2.5445879 0.0 0.0 -0.0 30.0 0.0 0.0 0.0 30.0" Properties=species:S:1:pos:R:3 pbc="T T T"
C        0.63614528      15.97630258      14.42020785
C        1.90843143      15.37070962      13.84551584
H        0.63619671      15.84124837      15.58172798
H        1.90849745      15.48405717      12.80416524
H        0.63619449      17.01537365      14.24975217
H        1.90849535      14.21512515      14.04386015
6
Lattice="2.5445879 0.0 0.0 -0.0 30.0 0.0 0.0 0.0 30.0" Properties=species:S:1:pos:R:3 pbc="T T T"
C        0.63614685      15.97499172      14.42217190
C        1.90843429      15.36870974      13.84709722
H        0.63618114      15.84369558      15.56007532
H        1.90847830      15.48553144      12.78931016
H        0.63617966      17.02852576      14.24780478
H        1.90847690      14.23750010      14.04006010
6
Lattice="2.5445879 0.0 0.0 -0.0 30.0 0.0 0.0 0.0 30.0" Properties=species:S:1:pos:R:3 pbc="T T T"
C        0.63614843      15.97368086      14.42413595
C        1.90843714      15.36670987      13.84867861
H        0.63616557      15.84614279      15.53842266
H        1.90845915      15.48700572      12.77445508
H        0.63616483      17.04167788      14.24585739
H        1.90845845      14.25987505      14.03626005
6
Lattice="2.5445879 0.0 0.0 -0.0 30.0 0.0 0.0 0.0 30.0" Properties=species:S:1:pos:R:3 pbc="T T T"
C        0.63615000      15.97237000      14.42610000
C        1.90844000      15.36471000      13.85026000
H        0.63615000      15.84859000      15.51677000
H        1.90844000      15.48848000      12.75960000
H        0.63615000      17.05483000      14.24391000
H        1.90844000      14.28225000      14.03246000
6
Lattice="2.5445879 0.0 0.0 -0.0 30.0 0.0 0.0 0.0 30.0" Properties=species:S:1:pos:R:3 pbc="T T T"
C        0.63615157      15.97105914      14.42806405
C        1.90844286      15.36271013      13.85184139
H        0.63613443      15.85103721      15.49511734
H        1.90842085      15.48995428      12.74474492
H        0.63613517      17.06798212      14.24196261
H        1.90842155      14.30462495      14.02865995
6
Lattice="2.5445879 0.0 0.0 -0.0 30.0 0.0 0.0 0.0 30.0" Properties=species:S:1:pos:R:3 pbc="T T T"
C        0.63615315      15.96974828      14.43002810
C        1.90844571      15.36071026      13.85342278
H        0.63611886      15.85348442      15.47346468
H        1.90840170      15.49142856      12.72988984
H        0.63612034      17.08113424      14.24001522
H        1.90840310      14.32699990      14.02485990
6
Lattice="2.5445879 0.0 0.0 -0.0 30.0 0.0 0.0 0.0 30.0" Properties=species:S:1:pos:R:3 pbc="T T T"
C        0.63615472      15.96843742      14.43199215
C        1.90844857      15.35871038      13.85500416
H        0.63610329      15.85593163      15.45181202
H        1.90838255      15.49290283      12.71503476
H        0.63610551      17.09428635      14.23806783
H        1.90838465      14.34937485      14.02105985
6
Lattice="2.5445879 0.0 0.0 -0.0 30.0 0.0 0.0 0.0 30.0" Properties=species:S:1:pos:R:3 pbc="T T T"
C        0.63615629      15.96712657      14.43395620
C        1.90845142      15.35671051      13.85658555
H        0.63608773      15.85837884      15.43015936
H        1.90836340      15.49437711      12.70017968
H        0.63609068      17.10743847      14.23612044
H        1.90836620      14.37174980      14.01725980
6
Lattice="2.5445879 0.0 0.0 -0.0 30.0 0.0 0.0 0.0 30.0" Properties=species:S:1:pos:R:3 pbc="T T T"
C        0.63615786      15.96581571      14.43592025
C        1.90845428      15.35471064      13.85816694
H        0.63607216      15.86082605      15.40850670
H        1.90834425      15.49585139      12.68532460
H        0.63607585      17.12059059      14.23417305
H        1.90834776      14.39412475      14.01345975
6
Lattice="2.5445879 0.0 0.0 -0.0 30.0 0.0 0.0 0.0 30.0" Properties=species:S:1:pos:R:3 pbc="T T T"
C        0.63615944      15.96450485      14.43788430
C        1.90845713      15.35271077      13.85974833
H        0.63605659      15.86327326      15.38685404
H        1.90832511      15.49732567      12.67046952
H        0.63606102      17.13374271      14.23222565
H        1.90832931      14.41649970      14.00965970
