6
Lattice="2.5445879 0.0 0.0 -0.0 30.0 0.0 0.0 0.0 30.0" Properties=species:S:1:pos:R:3 pbc="T T T"
C        0.63615375      15.98997857      14.44270183
C        1.90843817      15.38202224      13.86673108
H        0.63616822      15.66130146      15.50351234
H        1.90843637      15.30571154      12.74664149
H        0.63611438      17.03165992      14.05792967
H        1.90849643      14.25935254      13.85040988
6
Lattice="2.5445879 0.0 0.0 -0.0 30.0 0.0 0.0 0.0 30.0" Properties=species:S:1:pos:R:3 pbc="T T T"
C        0.63615321      15.98746306      14.44033014
C        1.90843843      15.37954906      13.86437807
H        0.63616562      15.68805696      15.50540629
H        1.90843689      15.33182132      12.74849271
H        0.63611946      17.03496993      14.08449829
H        1.90848837      14.26262360      13.87641704
6
Lattice="2.5445879 0.0 0.0 -0.0 30.0 0.0 0.0 0.0 30.0" Properties=species:S:1:pos:R:3 pbc="T T T"
C        0.63615268      15.98494755      14.43795845
C        1.90843869      15.37707588      13.86202506
H        0.63616301      15.71481247      15.50730024
H        1.90843740      15.35793110      12.75034392
H        0.63612455      17.03827994      14.11106690
H        1.90848031      14.26589467      13.90242420
6
Lattice="2.5445879 0.0 0.0 -0.0 30.0 0.0 0.0 0.0 30.0" Properties=species:S:1:pos:R:3 pbc="T T T"
C        0.63615214      15.98243204      14.43558676
C        1.90843895      15.37460271      13.85967204
H        0.63616041      15.74156797      15.50919419
H        1.90843792      15.38404088      12.75219514
H        0.63612964      17.04158995      14.13763552
H        1.90847225      14.26916573      13.92843136
6
Lattice="2.5445879 0.0 0.0 -0.0 30.0 0.0 0.0 0.0 30.0" Properties=species:S:1:pos:R:3 pbc="T T T"
C        0.63615161      15.97991653      14.43321507
C        1.90843921      15.37212953      13.85731903
H        0.63615781      15.76832348      15.51108815
H        1.90843844      15.41015066      12.75404635
H        0.63613473      17.04489996      14.16420414
H        1.90846418      14.27243680      13.95443852
6
Lattice="2.5445879 0.0 0.0 -0.0 30.0 0.0 0.0 0.0 30.0" Properties=species:S:1:pos:R:3 pbc="T T T"
C        0.63615107      15.97740102      14.43084338
C        1.90843948      15.36965635      13.85496602
H        0.63615521      15.79507899      15.51298210
H        1.90843896      15.43626044      12.75589757
H        0.63613982      17.04820998      14.19077276
H        1.90845612      14.27570787      13.98044568
6
Lattice="2.5445879 0.0 0.0 -0.0 30.0 0.0 0.0 0.0 30.0" Properties=species:S:1:pos:R:3 pbc="T T T"
C        0.63615054      15.97488551      14.42847169
C        1.90843974      15.36718318      13.85261301
H        0.63615260      15.82183449      15.51487605
H        1.90843948      15.46237022      12.75774878
H        0.63614491      17.05151999      14.21734138
H        1.90844806      14.27897893      14.00645284
6
Lattice="2.5445879 0.0 0.0 -0.0 30.0 0.0 0.0 0.0 30.0" Properties=species:S:1:pos:R:3 pbc="T T T"
C        0.63615000      15.97237000      14.42610000
C        1.90844000      15.36471000      13.85026000
H        0.63615000      15.84859000      15.51677000
H        1.90844000      15.48848000      12.75960000
H        0.63615000      17.05483000      14.24391000
H        1.90844000      14.28225000      14.03246000
6
Lattice="2.5445879 0.0 0.0 -0.0 30.0 0.0 0.0 0.0 30.0" Properties=species:S:1:pos:R:3 pbc="T T T"
C        0.63614946      15.96985449      14.42372831
C        1.90844026      15.36223682      13.84790699
H        0.63614740      15.87534551      15.51866395
H        1.90844052      15.51458978      12.76145122
H        0.63615509      17.05814001      14.27047862
H        1.90843194      14.28552107      14.05846716
6
Lattice="2.5445879 0.0 0.0 -0.0 30.0 0.0 0.0 0.0 30.0" Properties=species:S:1:pos:R:3 pbc="T T T"
C        0.63614893      15.96733898      14.42135662
C        1.90844052      15.35976365      13.84555398
H        0.63614479      15.90210101      15.52055790
H        1.90844104      15.54069956      12.76330243
H        0.63616018      17.06145002      14.29704724
H        1.90842388      14.28879213      14.08447432
6
Lattice="2.5445879 0.0 0.0 -0.0 30.0 0.0 0.0 0.0 30.0" Properties=species:S:1:pos:R:3 pbc="T T T"
C        0.63614839      15.96482347      14.41898493
C        1.90844079      15.35729047      13.84320097
H        0.63614219      15.92885652      15.52245185
H        1.90844156      15.56680934      12.76515365
H        0.63616527      17.06476004      14.32361586
H        1.90841582      14.29206320      14.11048148
6
Lattice="2.5445879 0.0 0.0 -0.0 30.0 0.0 0.0 0.0 30.0" Properties=species:S:1:pos:R:3 pbc="T T T"
C        0.63614786      15.96230796      14.41661324
C        1.90844105      15.35481729      13.84084796
H        0.63613959      15.95561203      15.52434581
H        1.90844208      15.59291912      12.76700486
H        0.63617036      17.06807005      14.35018448
H        1.90840775      14.29533427      14.13648864
6
Lattice="2.5445879 0.0 0.0 -0.0 30.0 0.0 0.0 0.0 30.0" Properties=species:S:1:pos:R:3 pbc="T T T"
C        0.63614732      15.95979245      14.41424155
C        1.90844131      15.35234412      13.83849494
H        0.63613699      15.98236753      15.52623976
H        1.90844260      15.61902890      12.76885608
H        0.63617545      17.07138006      14.37675310
H        1.90839969      14.29860533      14.16249580
6
Lattice="2.5445879 0.0 0.0 -0.0 30.0 0.0 0.0 0.0 30.0" Properties=species:S:1:pos:R:3 pbc="T T T"
C        0.63614679      15.95727694      14.41186986
C        1.90844157      15.34987094      13.83614193
H        0.63613438      16.00912304      15.52813371
H        1.90844311      15.64513868      12.77070729
H        0.63618054      17.07469007      14.40332171
H        1.90839163      14.30187640      14.18850296
6
Lattice="2.5445879 0.0 0.0 -0.0 30.0 0.0 0.0 0.0 30.0" Properties=species:S:1:pos:R:3 pbc="T T T"
C        0.63614625      15.95476143      14.40949817
C        1.90844183      15.34739776      13.83378892
H        0.63613178      16.03587854      15.53002766
H        1.90844363      15.67124846      12.77255851
H        0.63618562      17.07800008      14.42989033
H        1.90838357      14.30514746      14.21451012
6
Lattice="2.5445879 0.0 0.0 -0.0 30.0 0.0 0.0 0.0 30.0" Properties=species:S:1:pos:R:3 pbc="T T T"
C        0.63614679      15.95727694      14.41186986
C        1.90844157      15.34987094      13.83614193
H        0.63613438      16.00912304      15.52813371
H        1.90844311      15.64513868      12.77070729
H        0.63618054      17.07469007      14.40332171
H        1.90839163      14.30187640      14.18850296
6
Lattice="2.5445879 0.0 0.0 -0.0 30.0 0.0 0.0 0.0 30.0" Properties=species:S:1:pos:R:3 pbc="T T T"
C        0.63614732      15.95979245      14.41424155
C        1.90844131      15.35234412      13.83849494
H        0.63613699      15.98236753      15.52623976
H        1.90844260      15.61902890      12.76885608
H        0.63617545      17.07138006      14.37675310
H        1.90839969      14.29860533      14.16249580
6
Lattice="2.5445879 0.0 0.0 -0.0 30.0 0.0 0.0 0.0 30.0" Properties=species:S:1:pos:R:3 pbc="T T T"
C        0.63614786      15.96230796      14.41661324
C        1.90844105      15.35481729      13.84084796
H        0.63613959      15.95561203      15.52434581
H        1.90844208      15.59291912      12.76700486
H        0.63617036      17.06807005      14.35018448
H        1.90840775      14.29533427      14.13648864
6
Lattice="2.5445879 0.0 0.0 -0.0 30.0 0.0 0.0 0.0 30.0" Properties=species:S:1:pos:R:3 pbc="T T T"
C        0.63614839      15.96482347      14.41898493
C        1.90844079      15.35729047      13.84320097
H        0.63614219      15.92885652      15.52245185
H        1.90844156      15.56680934      12.76515365
H        0.63616527      17.06476004      14.32361586
H        1.90841582      14.29206320      14.11048148
6
Lattice="2.5445879 0.0 0.0 -0.0 30.0 0.0 0.0 0.0 30.0" Properties=species:S:1:pos:R:3 pbc="T T T"
C        0.63614893      15.96733898      14.42135662
C        1.90844052      15.35976365      13.84555398
H        0.63614479      15.90210101      15.52055790
H        1.90844104      15.54069956      12.76330243
H        0.63616018      17.06145002      14.29704724
H        1.90842388      14.28879213      14.08447432
6
Lattice="2.5445879 0.0 0.0 -0.0 30.0 0.0 0.0 0.0 30.0" Properties=species:S:1:pos:R:3 pbc="T T T"
C        0.63614946      15.96985449      14.42372831
C        1.90844026      15.36223682      13.84790699
H        0.63614740      15.87534551      15.51866395
H        1.90844052      15.51458978      12.76145122
H        0.63615509      17.05814001      14.27047862
H        1.90843194      14.28552107      14.05846716
6
Lattice="2.5445879 0.0 0.0 -0.0 30.0 0.0 0.0 0.0 30.0" Properties=species:S:1:pos:R:3 pbc="T T T"
C        0.63615000      15.97237000      14.42610000
C        1.90844000      15.36471000      13.85026000
H        0.63615000      15.84859000      15.51677000
H        1.90844000      15.48848000      12.75960000
H        0.63615000      17.05483000      14.24391000
H        1.90844000      14.28225000      14.03246000
6
Lattice="2.5445879 0.0 0.0 -0.0 30.0 0.0 0.0 0.0 30.0" Properties=species:S:1:pos:R:3 pbc="T T T"
C        0.63615054      15.97488551      14.42847169
C        1.90843974      15.36718318      13.85261301
H        0.63615260      15.82183449      15.51487605
H        1.90843948      15.46237022      12.75774878
H        0.63614491      17.05151999      14.21734138
H        1.90844806      14.27897893      14.00645284
6
Lattice="2.5445879 0.0 0.0 -0.0 30.0 0.0 0.0 0.0 30.0" Properties=species:S:1:pos:R:3 pbc="T T T"
C        0.63615107      15.97740102      14.43084338
C        1.90843948      15.36965635      13.85496602
H        0.63615521      15.79507899      15.51298210
H        1.90843896      15.43626044      12.75589757
H        0.63613982      17.04820998      14.19077276
H        1.90845612      14.27570787      13.98044568
6
Lattice="2.5445879 0.0 0.0 -0.0 30.0 0.0 0.0 0.0 30.0" Properties=species:S:1:pos:R:3 pbc="T T T"
C        0.63615161      15.97991653      14.43321507
C        1.90843921      15.37212953      13.85731903
H        0.63615781      15.76832348      15.51108815
H        1.90843844      15.41015066      12.75404635
H        0.63613473      17.04489996      14.16420414
H        1.90846418      14.27243680      13.95443852
6
Lattice="2.5445879 0.0 0.0 -0.0 30.0 0.0 0.0 0.0 30.0" Properties=species:S:1:pos:R:3 pbc="T T T"
C        0.63615214      15.98243204      14.43558676
C        1.90843895      15.37460271      13.85967204
H        0.63616041      15.74156797      15.50919419
H        1.90843792      15.38404088      12.75219514
H        0.63612964      17.04158995      14.13763552
H        1.90847225      14.26916573      13.92843136
6
Lattice="2.5445879 0.0 0.0 -0.0 30.0 0.0 0.0 0.0 30.0" Properties=species:S:1:pos:R:3 pbc="T T T"
C        0.63615268      15.98494755      14.43795845
C        1.90843869      15.37707588      13.86202506
H        0.63616301      15.71481247      15.50730024
H        1.90843740      15.35793110      12.75034392
H        0.63612455      17.03827994      14.11106690
H        1.90848031      14.26589467      13.90242420
6
Lattice="2.5445879 0.0 0.0 -0.0 30.0 0.0 0.0 0.0 30.0" Properties=species:S:1:pos:R:3 pbc="T T T"
C        0.63615321      15.98746306      14.44033014
C        1.90843843      15.37954906      13.86437807
H        0.63616562      15.68805696      15.50540629
H        1.90843689      15.33182132      12.74849271
H        0.63611946      17.03496993      14.08449829
H        1.90848837      14.26262360      13.87641704
