6
Lattice="2.5445879 0.0 0.0 -0.0 30.0 0.0 0.0 0.0 30.0" Properties=species:S:1:pos:R:3 pbc="T T T"
C        0.73080359      15.97235485      14.42606621
C        1.81372878      15.36473037      13.85028849
H        0.84398801      15.84852697      15.51672467
H        1.69576460      15.48845753      12.75964898
H        0.84916988      17.05481869      14.24394664
H        1.70094316      14.28227695      14.03246107
6
Lattice="2.5445879 0.0 0.0 -0.0 30.0 0.0 0.0 0.0 30.0" Properties=species:S:1:pos:R:3 pbc="T T T"
C        0.71728165      15.97235702      14.42607104
C        1.82725895      15.36472746      13.85028442
H        0.81429687      15.84853598      15.51673115
H        1.72614680      15.48846074      12.75964198
H        0.81873847      17.05482031      14.24394140
H        1.73058556      14.28227310      14.03246091
6
Lattice="2.5445879 0.0 0.0 -0.0 30.0 0.0 0.0 0.0 30.0" Properties=species:S:1:pos:R:3 pbc="T T T"
C        0.70375970      15.97235918      14.42607586
C        1.84078913      15.36472455      13.85028035
H        0.78460572      15.84854498      15.51673762
H        1.75652900      15.48846395      12.75963499
H        0.78830706      17.05482192      14.24393617
H        1.76022797      14.28226925      14.03246076
6
Lattice="2.5445879 0.0 0.0 -0.0 30.0 0.0 0.0 0.0 30.0" Properties=species:S:1:pos:R:3 pbc="T T T"
C        0.69023776      15.97236134      14.42608069
C        1.85431930      15.36472164      13.85027628
H        0.75491458      15.84855398      15.51674410
H        1.78691120      15.48846716      12.75962799
H        0.75787565      17.05482354      14.24393094
H        1.78987037      14.28226540      14.03246061
6
Lattice="2.5445879 0.0 0.0 -0.0 30.0 0.0 0.0 0.0 30.0" Properties=species:S:1:pos:R:3 pbc="T T T"
C        0.67671582      15.97236351      14.42608552
C        1.86784948      15.36471873      13.85027221
H        0.72522343      15.84856299      15.51675057
H        1.81729340      15.48847037      12.75962099
H        0.72744424      17.05482515      14.24392570
H        1.81951278      14.28226155      14.03246046
6
Lattice="2.5445879 0.0 0.0 -0.0 30.0 0.0 0.0 0.0 30.0" Properties=species:S:1:pos:R:3 pbc="T T T"
C        0.66319388      15.97236567      14.42609035
C        1.88137965      15.36471582      13.85026814
H        0.69553229      15.84857199      15.51675705
H        1.84767560      15.48847358      12.75961399
H        0.69701282      17.05482677      14.24392047
H        1.84915519      14.28225770      14.03246030
6
Lattice="2.5445879 0.0 0.0 -0.0 30.0 0.0 0.0 0.0 30.0" Properties=species:S:1:pos:R:3 pbc="T T T"
C        0.64967194      15.97236784      14.42609517
C        1.89490983      15.36471291      13.85026407
H        0.66584114      15.84858100      15.51676352
H        1.87805780      15.48847679      12.75960700
H        0.66658141      17.05482838      14.24391523
H        1.87879759      14.28225385      14.03246015
6
Lattice="2.5445879 0.0 0.0 -0.0 30.0 0.0 0.0 0.0 30.0" Properties=species:S:1:pos:R:3 pbc="T T T"
C        0.63615000      15.97237000      14.42610000
C        1.90844000      15.36471000      13.85026000
H        0.63615000      15.84859000      15.51677000
H        1.90844000      15.48848000      12.75960000
H        0.63615000      17.05483000      14.24391000
H        1.90844000      14.28225000      14.03246000
6
Lattice="2.5445879 0.0 0.0 -0.0 30.0 0.0 0.0 0.0 30.0" Properties=species:S:1:pos:R:3 pbc="T T T"
C        0.62262806      15.97237216      14.42610483
C        1.92197017      15.36470709      13.85025593
H        0.60645886      15.84859900      15.51677648
H        1.93882220      15.48848321      12.75959300
H        0.60571859      17.05483162      14.24390477
H        1.93808241      14.28224615      14.03245985
6
Lattice="2.5445879 0.0 0.0 -0.0 30.0 0.0 0.0 0.0 30.0" Properties=species:S:1:pos:R:3 pbc="T T T"
C        0.60910612      15.97237433      14.42610965
C        1.93550035      15.36470418      13.85025186
H        0.57676771      15.84860801      15.51678295
H        1.96920440      15.48848642      12.75958601
H        0.57528718      17.05483323      14.24389953
H        1.96772481      14.28224230      14.03245970
6
Lattice="2.5445879 0.0 0.0 -0.0 30.0 0.0 0.0 0.0 30.0" Properties=species:S:1:pos:R:3 pbc="T T T"
C        0.59558418      15.97237649      14.42611448
C        1.94903052      15.36470127      13.85024779
H        0.54707657      15.84861701      15.51678943
H        1.99958660      15.48848963      12.75957901
H        0.54485576      17.05483485      14.24389430
H        1.99736722      14.28223845      14.03245954
6
Lattice="2.5445879 0.0 0.0 -0.0 30.0 0.0 0.0 0.0 30.0" Properties=species:S:1:pos:R:3 pbc="T T T"
C        0.58206224      15.97237866      14.42611931
C        1.96256070      15.36469836      13.85024372
H        0.51738542      15.84862602      15.51679590
H        2.02996880      15.48849284      12.75957201
H        0.51442435      17.05483646      14.24388906
H        2.02700963      14.28223460      14.03245939
6
Lattice="2.5445879 0.0 0.0 -0.0 30.0 0.0 0.0 0.0 30.0" Properties=species:S:1:pos:R:3 pbc="T T T"
C        0.56854030      15.97238082      14.42612414
C        1.97609087      15.36469545      13.85023965
H        0.48769428      15.84863502      15.51680238
H        2.06035100      15.48849605      12.75956501
H        0.48399294      17.05483808      14.24388383
H        2.05665203      14.28223075      14.03245924
6
Lattice="2.5445879 0.0 0.0 -0.0 30.0 0.0 0.0 0.0 30.0" Properties=species:S:1:pos:R:3 pbc="T T T"
C        0.55501835      15.97238298      14.42612896
C        1.98962105      15.36469254      13.85023558
H        0.45800313      15.84864402      15.51680885
H        2.09073320      15.48849926      12.75955802
H        0.45356153      17.05483969      14.24387860
H        2.08629444      14.28222690      14.03245909
6
Lattice="2.5445879 0.0 0.0 -0.0 30.0 0.0 0.0 0.0 30.0" Properties=species:S:1:pos:R:3 pbc="T T T"
C        0.54149641      15.97238515      14.42613379
C        2.00315122      15.36468963      13.85023151
H        0.42831199      15.84865303      15.51681533
H        2.12111540      15.48850247      12.75955102
H        0.42313012      17.05484131      14.24387336
H        2.11593684      14.28222305      14.03245893
6
Lattice="2.5445879 0.0 0.0 -0.0 30.0 0.0 0.0 0.0 30.0" Properties=species:S:1:pos:R:3 pbc="T T T"
C        0.55501835      15.97238298      14.42612896
C        1.98962105      15.36469254      13.85023558
H        0.45800313      15.84864402      15.51680885
H        2.09073320      15.48849926      12.75955802
H        0.45356153      17.05483969      14.24387860
H        2.08629444      14.28222690      14.03245909
6
Lattice="2.5445879 0.0 0.0 -0.0 30.0 0.0 0.0 0.0 30.0" Properties=species:S:1:pos:R:3 pbc="T T T"
C        0.56854030      15.97238082      14.42612414
C        1.97609087      15.36469545      13.85023965
H        0.48769428      15.84863502      15.51680238
H        2.06035100      15.48849605      12.75956501
H        0.48399294      17.05483808      14.24388383
H        2.05665203      14.28223075      14.03245924
6
Lattice="2.5445879 0.0 0.0 -0.0 30.0 0.0 0.0 0.0 30.0" Properties=species:S:1:pos:R:3 pbc="T T T"
C        0.58206224      15.97237866      14.42611931
C        1.96256070      15.36469836      13.85024372
H        0.51738542      15.84862602      15.51679590
H        2.02996880      15.48849284      12.75957201
H        0.51442435      17.05483646      14.24388906
H        2.02700963      14.28223460      14.03245939
6
Lattice="2.5445879 0.0 0.0 -0.0 30.0 0.0 0.0 0.0 30.0" Properties=species:S:1:pos:R:3 pbc="T T T"
C        0.59558418      15.97237649      14.42611448
C        1.94903052      15.36470127      13.85024779
H        0.54707657      15.84861701      15.51678943
H        1.99958660      15.48848963      12.75957901
H        0.54485576      17.05483485      14.24389430
H        1.99736722      14.28223845      14.03245954
6
Lattice="2.5445879 0.0 0.0 -0.0 30.0 0.0 0.0 0.0 30.0" Properties=species:S:1:pos:R:3 pbc="T T T"
C        0.60910612      15.97237433      14.42610965
C        1.93550035      15.36470418      13.85025186
H        0.57676771      15.84860801      15.51678295
H        1.96920440      15.48848642      12.75958601
H        0.57528718      17.05483323      14.24389953
H        1.96772481      14.28224230      14.03245970
6
Lattice="2.5445879 0.0 0.0 -0.0 30.0 0.0 0.0 0.0 30.0" Properties=species:S:1:pos:R:3 pbc="T T T"
C        0.62262806      15.97237216      14.42610483
C        1.92197017      15.36470709      13.85025593
H        0.60645886      15.84859900      15.51677648
H        1.93882220      15.48848321      12.75959300
H        0.60571859      17.05483162      14.24390477
H        1.93808241      14.28224615      14.03245985
6
Lattice="2.5445879 0.0 0.0 -0.0 30.0 0.0 0.0 0.0 30.0" Properties=species:S:1:pos:R:3 pbc="T T T"
C        0.63615000      15.97237000      14.42610000
C        1.90844000      15.36471000      13.85026000
H        0.63615000      15.84859000      15.51677000
H        1.90844000      15.48848000      12.75960000
H        0.63615000      17.05483000      14.24391000
H        1.90844000      14.28225000      14.03246000
6
Lattice="2.5445879 0.0 0.0 -0.0 30.0 0.0 0.0 0.0 30.0" Properties=species:S:1:pos:R:3 pbc="T T T"
C        0.64967194      15.97236784      14.42609517
C        1.89490983      15.36471291      13.85026407
H        0.66584114      15.84858100      15.51676352
H        1.87805780      15.48847679      12.75960700
H        0.66658141      17.05482838      14.24391523
H        1.87879759      14.28225385      14.03246015
6
Lattice="2.5445879 0.0 0.0 -0.0 30.0 0.0 0.0 0.0 30.0" Properties=species:S:1:pos:R:3 pbc="T T T"
C        0.66319388      15.97236567      14.42609035
C        1.88137965      15.36471582      13.85026814
H        0.69553229      15.84857199      15.51675705
H        1.84767560      15.48847358      12.75961399
H        0.69701282      17.05482677      14.24392047
H        1.84915519      14.28225770      14.03246030
6
Lattice="2.5445879 0.0 0.0 -0.0 30.0 0.0 0.0 0.0 30.0" Properties=species:S:1:pos:R:3 pbc="T T T"
C        0.67671582      15.97236351      14.42608552
C        1.86784948      15.36471873      13.85027221
H        0.72522343      15.84856299      15.51675057
H        1.81729340      15.48847037      12.75962099
H        0.72744424      17.05482515      14.24392570
H        1.81951278      14.28226155      14.03246046
6
Lattice="2.5445879 0.0 0.0 -0.0 30.0 0.0 0.0 0.0 30.0" Properties=species:S:1:pos:R:3 pbc="T T T"
C        0.69023776      15.97236134      14.42608069
C        1.85431930      15.36472164      13.85027628
H        0.75491458      15.84855398      15.51674410
H        1.78691120      15.48846716      12.75962799
H        0.75787565      17.05482354      14.24393094
H        1.78987037      14.28226540      14.03246061
6
Lattice="2.5445879 0.0 0.0 -0.0 30.0 0.0 0.0 0.0 30.0" Properties=species:S:1:pos:R:3 pbc="T T T"
C        0.70375970      15.97235918      14.42607586
C        1.84078913      15.36472455      13.85028035
H        0.78460572      15.84854498      15.51673762
H        1.75652900      15.48846395      12.75963499
H        0.78830706      17.05482192      14.24393617
H        1.76022797      14.28226925      14.03246076
6
Lattice="2.5445879 0.0 0.0 -0.0 30.0 0.0 0.0 0.0 30.0" Properties=species:S:1:pos:R:3 pbc="T T T"
C        0.71728165      15.97235702      14.42607104
C        1.82725895      15.36472746      13.85028442
H        0.81429687      15.84853598      15.51673115
H        1.72614680      15.48846074      12.75964198
H        0.81873847      17.05482031      14.24394140
H        1.73058556      14.28227310      14.03246091
