6
Lattice="2.5445879 0.0 0.0 -0.0 30.0 0.0 0.0 0.0 30.0" Properties=species:S:1:pos:R:3 pbc="T T T"
C        0.63569261      15.82692729      14.29339556
C        1.90797798      15.51003723      13.98298795
H        0.63836121      15.75653198      15.39394063
H        1.91081458      15.58268079      12.88329269
H        0.63891440      16.91922749      14.14325786
H        1.91193835      14.41745704      14.13175124
6
Lattice="2.5445879 0.0 0.0 -0.0 30.0 0.0 0.0 0.0 30.0" Properties=species:S:1:pos:R:3 pbc="T T T"
C        0.63575795      15.84770482      14.31235333
C        1.90804398      15.48927620      13.96402681
H        0.63804533      15.76968312      15.41148768
H        1.91047535      15.56922354      12.86562230
H        0.63851949      16.93859928      14.15763674
H        1.91143859      14.39814175      14.11756678
6
Lattice="2.5445879 0.0 0.0 -0.0 30.0 0.0 0.0 0.0 30.0" Properties=species:S:1:pos:R:3 pbc="T T T"
C        0.63582329      15.86848235      14.33131111
C        1.90810999      15.46851516      13.94506568
H        0.63772944      15.78283427      15.42903473
H        1.91013613      15.55576628      12.84795192
H        0.63812457      16.95797107      14.17201562
H        1.91093882      14.37882646      14.10338232
6
Lattice="2.5445879 0.0 0.0 -0.0 30.0 0.0 0.0 0.0 30.0" Properties=species:S:1:pos:R:3 pbc="T T T"
C        0.63588864      15.88925988      14.35026889
C        1.90817599      15.44775413      13.92610454
H        0.63741355      15.79598542      15.44658179
H        1.90979690      15.54230902      12.83028154
H        0.63772966      16.97734285      14.18639449
H        1.91043906      14.35951117      14.08919785
6
Lattice="2.5445879 0.0 0.0 -0.0 30.0 0.0 0.0 0.0 30.0" Properties=species:S:1:pos:R:3 pbc="T T T"
C        0.63595398      15.91003741      14.36922667
C        1.90824199      15.42699310      13.90714341
H        0.63709766      15.80913656      15.46412884
H        1.90945768      15.52885177      12.81261115
H        0.63733474      16.99671464      14.20077337
H        1.90993929      14.34019588      14.07501339
6
Lattice="2.5445879 0.0 0.0 -0.0 30.0 0.0 0.0 0.0 30.0" Properties=species:S:1:pos:R:3 pbc="T T T"
C        0.63601932      15.93081494      14.38818444
C        1.90830799      15.40623207      13.88818227
H        0.63678178      15.82228771      15.48167589
H        1.90911845      15.51539451      12.79494077
H        0.63693983      17.01608643      14.21515225
H        1.90943953      14.32088058      14.06082893
6
Lattice="2.5445879 0.0 0.0 -0.0 30.0 0.0 0.0 0.0 30.0" Properties=species:S:1:pos:R:3 pbc="T T T"
C        0.63608466      15.95159247      14.40714222
C        1.90837400      15.38547103      13.86922114
H        0.63646589      15.83543885      15.49922295
H        1.90877923      15.50193726      12.77727038
H        0.63654491      17.03545821      14.22953112
H        1.90893976      14.30156529      14.04664446
6
Lattice="2.5445879 0.0 0.0 -0.0 30.0 0.0 0.0 0.0 30.0" Properties=species:S:1:pos:R:3 pbc="T T T"
C        0.63615000      15.97237000      14.42610000
C        1.90844000      15.36471000      13.85026000
H        0.63615000      15.84859000      15.51677000
H        1.90844000      15.48848000      12.75960000
H        0.63615000      17.05483000      14.24391000
H        1.90844000      14.28225000      14.03246000
6
Lattice="2.5445879 0.0 0.0 -0.0 30.0 0.0 0.0 0.0 30.0" Properties=species:S:1:pos:R:3 pbc="T T T"
C        0.63621534      15.99314753      14.44505778
C        1.90850600      15.34394897      13.83129886
H        0.63583411      15.86174115      15.53431705
H        1.90810077      15.47502274      12.74192962
H        0.63575509      17.07420179      14.25828888
H        1.90794024      14.26293471      14.01827554
6
Lattice="2.5445879 0.0 0.0 -0.0 30.0 0.0 0.0 0.0 30.0" Properties=species:S:1:pos:R:3 pbc="T T T"
C        0.63628068      16.01392506      14.46401556
C        1.90857201      15.32318793      13.81233773
H        0.63551822      15.87489229      15.55186411
H        1.90776155      15.46156549      12.72425923
H        0.63536017      17.09357357      14.27266775
H        1.90744047      14.24361942      14.00409107
6
Lattice="2.5445879 0.0 0.0 -0.0 30.0 0.0 0.0 0.0 30.0" Properties=species:S:1:pos:R:3 pbc="T T T"
C        0.63634602      16.03470259      14.48297333
C        1.90863801      15.30242690      13.79337659
H        0.63520234      15.88804344      15.56941116
H        1.90742232      15.44810823      12.70658885
H        0.63496526      17.11294536      14.28704663
H        1.90694071      14.22430412      13.98990661
6
Lattice="2.5445879 0.0 0.0 -0.0 30.0 0.0 0.0 0.0 30.0" Properties=species:S:1:pos:R:3 pbc="T T T"
C        0.63641136      16.05548012      14.50193111
C        1.90870401      15.28166587      13.77441546
H        0.63488645      15.90119458      15.58695821
H        1.90708310      15.43465098      12.68891846
H        0.63457034      17.13231715      14.30142551
H        1.90644094      14.20498883      13.97572215
6
Lattice="2.5445879 0.0 0.0 -0.0 30.0 0.0 0.0 0.0 30.0" Properties=species:S:1:pos:R:3 pbc="T T T"
C        0.63647671      16.07625765      14.52088889
C        1.90877001      15.26090484      13.75545432
H        0.63457056      15.91434573      15.60450527
H        1.90674387      15.42119372      12.67124808
H        0.63417543      17.15168893      14.31580438
H        1.90594118      14.18567354      13.96153768
6
Lattice="2.5445879 0.0 0.0 -0.0 30.0 0.0 0.0 0.0 30.0" Properties=species:S:1:pos:R:3 pbc="T T T"
C        0.63654205      16.09703518      14.53984667
C        1.90883602      15.24014380      13.73649319
H        0.63425467      15.92749688      15.62205232
H        1.90640465      15.40773646      12.65357770
H        0.63378051      17.17106072      14.33018326
H        1.90544141      14.16635825      13.94735322
6
Lattice="2.5445879 0.0 0.0 -0.0 30.0 0.0 0.0 0.0 30.0" Properties=species:S:1:pos:R:3 pbc="T T T"
C        0.63660739      16.11781271      14.55880444
C        1.90890202      15.21938277      13.71753205
H        0.63393879      15.94064802      15.63959937
H        1.90606542      15.39427921      12.63590731
H        0.63338560      17.19043251      14.34456214
H        1.90494165      14.14704296      13.93316876
6
Lattice="2.5445879 0.0 0.0 -0.0 30.0 0.0 0.0 0.0 30.0" Properties=species:S:1:pos:R:3 pbc="T T T"
C        0.63654205      16.09703518      14.53984667
C        1.90883602      15.24014380      13.73649319
H        0.63425467      15.92749688      15.62205232
H        1.90640465      15.40773646      12.65357770
H        0.63378051      17.17106072      14.33018326
H        1.90544141      14.16635825      13.94735322
6
Lattice="2.5445879 0.0 0.0 -0.0 30.0 0.0 0.0 0.0 30.0" Properties=species:S:1:pos:R:3 pbc="T T T"
C        0.63647671      16.07625765      14.52088889
C        1.90877001      15.26090484      13.75545432
H        0.63457056      15.91434573      15.60450527
H        1.90674387      15.42119372      12.67124808
H        0.63417543      17.15168893      14.31580438
H        1.90594118      14.18567354      13.96153768
6
Lattice="2.5445879 0.0 0.0 -0.0 30.0 0.0 0.0 0.0 30.0" Properties=species:S:1:pos:R:3 pbc="T T T"
C        0.63641136      16.05548012      14.50193111
C        1.90870401      15.28166587      13.77441546
H        0.63488645      15.90119458      15.58695821
H        1.90708310      15.43465098      12.68891846
H        0.63457034      17.13231715      14.30142551
H        1.90644094      14.20498883      13.97572215
6
Lattice="2.5445879 0.0 0.0 -0.0 30.0 0.0 0.0 0.0 30.0" Properties=species:S:1:pos:R:3 pbc="T T T"
C        0.63634602      16.03470259      14.48297333
C        1.90863801      15.30242690      13.79337659
H        0.63520234      15.88804344      15.56941116
H        1.90742232      15.44810823      12.70658885
H        0.63496526      17.11294536      14.28704663
H        1.90694071      14.22430412      13.98990661
6
Lattice="2.5445879 0.0 0.0 -0.0 30.0 0.0 0.0 0.0 30.0" Properties=species:S:1:pos:R:3 pbc="T T T"
C        0.63628068      16.01392506      14.46401556
C        1.90857201      15.32318793      13.81233773
H        0.63551822      15.87489229      15.55186411
H        1.90776155      15.46156549      12.72425923
H        0.63536017      17.09357357      14.27266775
H        1.90744047      14.24361942      14.00409107
6
Lattice="2.5445879 0.0 0.0 -0.0 30.0 0.0 0.0 0.0 30.0" Properties=species:S:1:pos:R:3 pbc="T T T"
C        0.63621534      15.99314753      14.44505778
C        1.90850600      15.34394897      13.83129886
H        0.63583411      15.86174115      15.53431705
H        1.90810077      15.47502274      12.74192962
H        0.63575509      17.07420179      14.25828888
H        1.90794024      14.26293471      14.01827554
6
Lattice="2.5445879 0.0 0.0 -0.0 30.0 0.0 0.0 0.0 30.0" Properties=species:S:1:pos:R:3 pbc="T T T"
C        0.63615000      15.97237000      14.42610000
C        1.90844000      15.36471000      13.85026000
H        0.63615000      15.84859000      15.51677000
H        1.90844000      15.48848000      12.75960000
H        0.63615000      17.05483000      14.24391000
H        1.90844000      14.28225000      14.03246000
6
Lattice="2.5445879 0.0 0.0 -0.0 30.0 0.0 0.0 0.0 30.0" Properties=species:S:1:pos:R:3 pbc="T T T"
C        0.63608466      15.95159247      14.40714222
C        1.90837400      15.38547103      13.86922114
H        0.63646589      15.83543885      15.49922295
H        1.90877923      15.50193726      12.77727038
H        0.63654491      17.03545821      14.22953112
H        1.90893976      14.30156529      14.04664446
6
Lattice="2.5445879 0.0 0.0 -0.0 30.0 0.0 0.0 0.0 30.0" Properties=species:S:1:pos:R:3 pbc="T T T"
C        0.63601932      15.93081494      14.38818444
C        1.90830799      15.40623207      13.88818227
H        0.63678178      15.82228771      15.48167589
H        1.90911845      15.51539451      12.79494077
H        0.63693983      17.01608643      14.21515225
H        1.90943953      14.32088058      14.06082893
6
Lattice="2.5445879 0.0 0.0 -0.0 30.0 0.0 0.0 0.0 30.0" Properties=species:S:1:pos:R:3 pbc="T T T"
C        0.63595398      15.91003741      14.36922667
C        1.90824199      15.42699310      13.90714341
H        0.63709766      15.80913656      15.46412884
H        1.90945768      15.52885177      12.81261115
H        0.63733474      16.99671464      14.20077337
H        1.90993929      14.34019588      14.07501339
6
Lattice="2.5445879 0.0 0.0 -0.0 30.0 0.0 0.0 0.0 30.0" Properties=species:S:1:pos:R:3 pbc="T T T"
C        0.63588864      15.88925988      14.35026889
C        1.90817599      15.44775413      13.92610454
H        0.63741355      15.79598542      15.44658179
H        1.90979690      15.54230902      12.83028154
H        0.63772966      16.97734285      14.18639449
H        1.91043906      14.35951117      14.08919785
6
Lattice="2.5445879 0.0 0.0 -0.0 30.0 0.0 0.0 0.0 30.0" Properties=species:S:1:pos:R:3 pbc="T T T"
C        0.63582329      15.86848235      14.33131111
C        1.90810999      15.46851516      13.94506568
H        0.63772944      15.78283427      15.42903473
H        1.91013613      15.55576628      12.84795192
H        0.63812457      16.95797107      14.17201562
H        1.91093882      14.37882646      14.10338232
6
Lattice="2.5445879 0.0 0.0 -0.0 30.0 0.0 0.0 0.0 30.0" Properties=species:S:1:pos:R:3 pbc="T T T"
C        0.63575795      15.84770482      14.31235333
C        1.90804398      15.48927620      13.96402681
H        0.63804533      15.76968312      15.41148768
H        1.91047535      15.56922354      12.86562230
H        0.63851949      16.93859928      14.15763674
H        1.91143859      14.39814175      14.11756678
